p cnf 32 80
1 2 0
-1 -2 0
3 4 0
-3 -4 0
5 6 0
-5 -6 0
7 8 0
-7 -8 0
9 10 0
-9 -10 0
11 12 0
-11 -12 0
13 14 0
-13 -14 0
15 16 0
-15 -16 0
17 18 0
-17 -18 0
19 20 0
-19 -20 0
21 22 0
-21 -22 0
23 24 0
-23 -24 0
25 26 0
-25 -26 0
27 28 0
-27 -28 0
29 30 0
-29 -30 0
31 32 0
-31 -32 0
-1 -3 0
-1 -9 0
-2 -4 0
-2 -10 0
-3 -5 0
-3 -11 0
-4 -6 0
-4 -12 0
-5 -7 0
-5 -13 0
-6 -8 0
-6 -14 0
-7 -15 0
-8 -16 0
-9 -11 0
-9 -17 0
-10 -12 0
-10 -18 0
-11 -13 0
-11 -19 0
-12 -14 0
-12 -20 0
-13 -15 0
-13 -21 0
-14 -16 0
-14 -22 0
-15 -23 0
-16 -24 0
-17 -19 0
-17 -25 0
-18 -20 0
-18 -26 0
-19 -21 0
-19 -27 0
-20 -22 0
-20 -28 0
-21 -23 0
-21 -29 0
-22 -24 0
-22 -30 0
-23 -31 0
-24 -32 0
-25 -27 0
-26 -28 0
-27 -29 0
-28 -30 0
-29 -31 0
-30 -32 0
