p cnf 288 816
1 2 0
-1 -2 0
3 4 0
-3 -4 0
5 6 0
-5 -6 0
7 8 0
-7 -8 0
9 10 0
-9 -10 0
11 12 0
-11 -12 0
13 14 0
-13 -14 0
15 16 0
-15 -16 0
17 18 0
-17 -18 0
19 20 0
-19 -20 0
21 22 0
-21 -22 0
23 24 0
-23 -24 0
25 26 0
-25 -26 0
27 28 0
-27 -28 0
29 30 0
-29 -30 0
31 32 0
-31 -32 0
33 34 0
-33 -34 0
35 36 0
-35 -36 0
37 38 0
-37 -38 0
39 40 0
-39 -40 0
41 42 0
-41 -42 0
43 44 0
-43 -44 0
45 46 0
-45 -46 0
47 48 0
-47 -48 0
49 50 0
-49 -50 0
51 52 0
-51 -52 0
53 54 0
-53 -54 0
55 56 0
-55 -56 0
57 58 0
-57 -58 0
59 60 0
-59 -60 0
61 62 0
-61 -62 0
63 64 0
-63 -64 0
65 66 0
-65 -66 0
67 68 0
-67 -68 0
69 70 0
-69 -70 0
71 72 0
-71 -72 0
73 74 0
-73 -74 0
75 76 0
-75 -76 0
77 78 0
-77 -78 0
79 80 0
-79 -80 0
81 82 0
-81 -82 0
83 84 0
-83 -84 0
85 86 0
-85 -86 0
87 88 0
-87 -88 0
89 90 0
-89 -90 0
91 92 0
-91 -92 0
93 94 0
-93 -94 0
95 96 0
-95 -96 0
97 98 0
-97 -98 0
99 100 0
-99 -100 0
101 102 0
-101 -102 0
103 104 0
-103 -104 0
105 106 0
-105 -106 0
107 108 0
-107 -108 0
109 110 0
-109 -110 0
111 112 0
-111 -112 0
113 114 0
-113 -114 0
115 116 0
-115 -116 0
117 118 0
-117 -118 0
119 120 0
-119 -120 0
121 122 0
-121 -122 0
123 124 0
-123 -124 0
125 126 0
-125 -126 0
127 128 0
-127 -128 0
129 130 0
-129 -130 0
131 132 0
-131 -132 0
133 134 0
-133 -134 0
135 136 0
-135 -136 0
137 138 0
-137 -138 0
139 140 0
-139 -140 0
141 142 0
-141 -142 0
143 144 0
-143 -144 0
145 146 0
-145 -146 0
147 148 0
-147 -148 0
149 150 0
-149 -150 0
151 152 0
-151 -152 0
153 154 0
-153 -154 0
155 156 0
-155 -156 0
157 158 0
-157 -158 0
159 160 0
-159 -160 0
161 162 0
-161 -162 0
163 164 0
-163 -164 0
165 166 0
-165 -166 0
167 168 0
-167 -168 0
169 170 0
-169 -170 0
171 172 0
-171 -172 0
173 174 0
-173 -174 0
175 176 0
-175 -176 0
177 178 0
-177 -178 0
179 180 0
-179 -180 0
181 182 0
-181 -182 0
183 184 0
-183 -184 0
185 186 0
-185 -186 0
187 188 0
-187 -188 0
189 190 0
-189 -190 0
191 192 0
-191 -192 0
193 194 0
-193 -194 0
195 196 0
-195 -196 0
197 198 0
-197 -198 0
199 200 0
-199 -200 0
201 202 0
-201 -202 0
203 204 0
-203 -204 0
205 206 0
-205 -206 0
207 208 0
-207 -208 0
209 210 0
-209 -210 0
211 212 0
-211 -212 0
213 214 0
-213 -214 0
215 216 0
-215 -216 0
217 218 0
-217 -218 0
219 220 0
-219 -220 0
221 222 0
-221 -222 0
223 224 0
-223 -224 0
225 226 0
-225 -226 0
227 228 0
-227 -228 0
229 230 0
-229 -230 0
231 232 0
-231 -232 0
233 234 0
-233 -234 0
235 236 0
-235 -236 0
237 238 0
-237 -238 0
239 240 0
-239 -240 0
241 242 0
-241 -242 0
243 244 0
-243 -244 0
245 246 0
-245 -246 0
247 248 0
-247 -248 0
249 250 0
-249 -250 0
251 252 0
-251 -252 0
253 254 0
-253 -254 0
255 256 0
-255 -256 0
257 258 0
-257 -258 0
259 260 0
-259 -260 0
261 262 0
-261 -262 0
263 264 0
-263 -264 0
265 266 0
-265 -266 0
267 268 0
-267 -268 0
269 270 0
-269 -270 0
271 272 0
-271 -272 0
273 274 0
-273 -274 0
275 276 0
-275 -276 0
277 278 0
-277 -278 0
279 280 0
-279 -280 0
281 282 0
-281 -282 0
283 284 0
-283 -284 0
285 286 0
-285 -286 0
287 288 0
-287 -288 0
-1 -3 0
-1 -25 0
-2 -4 0
-2 -26 0
-3 -5 0
-3 -27 0
-4 -6 0
-4 -28 0
-5 -7 0
-5 -29 0
-6 -8 0
-6 -30 0
-7 -9 0
-7 -31 0
-8 -10 0
-8 -32 0
-9 -11 0
-9 -33 0
-10 -12 0
-10 -34 0
-11 -13 0
-11 -35 0
-12 -14 0
-12 -36 0
-13 -15 0
-13 -37 0
-14 -16 0
-14 -38 0
-15 -17 0
-15 -39 0
-16 -18 0
-16 -40 0
-17 -19 0
-17 -41 0
-18 -20 0
-18 -42 0
-19 -21 0
-19 -43 0
-20 -22 0
-20 -44 0
-21 -23 0
-21 -45 0
-22 -24 0
-22 -46 0
-23 -47 0
-24 -48 0
-25 -27 0
-25 -49 0
-26 -28 0
-26 -50 0
-27 -29 0
-27 -51 0
-28 -30 0
-28 -52 0
-29 -31 0
-29 -53 0
-30 -32 0
-30 -54 0
-31 -33 0
-31 -55 0
-32 -34 0
-32 -56 0
-33 -35 0
-33 -57 0
-34 -36 0
-34 -58 0
-35 -37 0
-35 -59 0
-36 -38 0
-36 -60 0
-37 -39 0
-37 -61 0
-38 -40 0
-38 -62 0
-39 -41 0
-39 -63 0
-40 -42 0
-40 -64 0
-41 -43 0
-41 -65 0
-42 -44 0
-42 -66 0
-43 -45 0
-43 -67 0
-44 -46 0
-44 -68 0
-45 -47 0
-45 -69 0
-46 -48 0
-46 -70 0
-47 -71 0
-48 -72 0
-49 -51 0
-49 -73 0
-50 -52 0
-50 -74 0
-51 -53 0
-51 -75 0
-52 -54 0
-52 -76 0
-53 -55 0
-53 -77 0
-54 -56 0
-54 -78 0
-55 -57 0
-55 -79 0
-56 -58 0
-56 -80 0
-57 -59 0
-57 -81 0
-58 -60 0
-58 -82 0
-59 -61 0
-59 -83 0
-60 -62 0
-60 -84 0
-61 -63 0
-61 -85 0
-62 -64 0
-62 -86 0
-63 -65 0
-63 -87 0
-64 -66 0
-64 -88 0
-65 -67 0
-65 -89 0
-66 -68 0
-66 -90 0
-67 -69 0
-67 -91 0
-68 -70 0
-68 -92 0
-69 -71 0
-69 -93 0
-70 -72 0
-70 -94 0
-71 -95 0
-72 -96 0
-73 -75 0
-73 -97 0
-74 -76 0
-74 -98 0
-75 -77 0
-75 -99 0
-76 -78 0
-76 -100 0
-77 -79 0
-77 -101 0
-78 -80 0
-78 -102 0
-79 -81 0
-79 -103 0
-80 -82 0
-80 -104 0
-81 -83 0
-81 -105 0
-82 -84 0
-82 -106 0
-83 -85 0
-83 -107 0
-84 -86 0
-84 -108 0
-85 -87 0
-85 -109 0
-86 -88 0
-86 -110 0
-87 -89 0
-87 -111 0
-88 -90 0
-88 -112 0
-89 -91 0
-89 -113 0
-90 -92 0
-90 -114 0
-91 -93 0
-91 -115 0
-92 -94 0
-92 -116 0
-93 -95 0
-93 -117 0
-94 -96 0
-94 -118 0
-95 -119 0
-96 -120 0
-97 -99 0
-97 -121 0
-98 -100 0
-98 -122 0
-99 -101 0
-99 -123 0
-100 -102 0
-100 -124 0
-101 -103 0
-101 -125 0
-102 -104 0
-102 -126 0
-103 -105 0
-103 -127 0
-104 -106 0
-104 -128 0
-105 -107 0
-105 -129 0
-106 -108 0
-106 -130 0
-107 -109 0
-107 -131 0
-108 -110 0
-108 -132 0
-109 -111 0
-109 -133 0
-110 -112 0
-110 -134 0
-111 -113 0
-111 -135 0
-112 -114 0
-112 -136 0
-113 -115 0
-113 -137 0
-114 -116 0
-114 -138 0
-115 -117 0
-115 -139 0
-116 -118 0
-116 -140 0
-117 -119 0
-117 -141 0
-118 -120 0
-118 -142 0
-119 -143 0
-120 -144 0
-121 -123 0
-121 -145 0
-122 -124 0
-122 -146 0
-123 -125 0
-123 -147 0
-124 -126 0
-124 -148 0
-125 -127 0
-125 -149 0
-126 -128 0
-126 -150 0
-127 -129 0
-127 -151 0
-128 -130 0
-128 -152 0
-129 -131 0
-129 -153 0
-130 -132 0
-130 -154 0
-131 -133 0
-131 -155 0
-132 -134 0
-132 -156 0
-133 -135 0
-133 -157 0
-134 -136 0
-134 -158 0
-135 -137 0
-135 -159 0
-136 -138 0
-136 -160 0
-137 -139 0
-137 -161 0
-138 -140 0
-138 -162 0
-139 -141 0
-139 -163 0
-140 -142 0
-140 -164 0
-141 -143 0
-141 -165 0
-142 -144 0
-142 -166 0
-143 -167 0
-144 -168 0
-145 -147 0
-145 -169 0
-146 -148 0
-146 -170 0
-147 -149 0
-147 -171 0
-148 -150 0
-148 -172 0
-149 -151 0
-149 -173 0
-150 -152 0
-150 -174 0
-151 -153 0
-151 -175 0
-152 -154 0
-152 -176 0
-153 -155 0
-153 -177 0
-154 -156 0
-154 -178 0
-155 -157 0
-155 -179 0
-156 -158 0
-156 -180 0
-157 -159 0
-157 -181 0
-158 -160 0
-158 -182 0
-159 -161 0
-159 -183 0
-160 -162 0
-160 -184 0
-161 -163 0
-161 -185 0
-162 -164 0
-162 -186 0
-163 -165 0
-163 -187 0
-164 -166 0
-164 -188 0
-165 -167 0
-165 -189 0
-166 -168 0
-166 -190 0
-167 -191 0
-168 -192 0
-169 -171 0
-169 -193 0
-170 -172 0
-170 -194 0
-171 -173 0
-171 -195 0
-172 -174 0
-172 -196 0
-173 -175 0
-173 -197 0
-174 -176 0
-174 -198 0
-175 -177 0
-175 -199 0
-176 -178 0
-176 -200 0
-177 -179 0
-177 -201 0
-178 -180 0
-178 -202 0
-179 -181 0
-179 -203 0
-180 -182 0
-180 -204 0
-181 -183 0
-181 -205 0
-182 -184 0
-182 -206 0
-183 -185 0
-183 -207 0
-184 -186 0
-184 -208 0
-185 -187 0
-185 -209 0
-186 -188 0
-186 -210 0
-187 -189 0
-187 -211 0
-188 -190 0
-188 -212 0
-189 -191 0
-189 -213 0
-190 -192 0
-190 -214 0
-191 -215 0
-192 -216 0
-193 -195 0
-193 -217 0
-194 -196 0
-194 -218 0
-195 -197 0
-195 -219 0
-196 -198 0
-196 -220 0
-197 -199 0
-197 -221 0
-198 -200 0
-198 -222 0
-199 -201 0
-199 -223 0
-200 -202 0
-200 -224 0
-201 -203 0
-201 -225 0
-202 -204 0
-202 -226 0
-203 -205 0
-203 -227 0
-204 -206 0
-204 -228 0
-205 -207 0
-205 -229 0
-206 -208 0
-206 -230 0
-207 -209 0
-207 -231 0
-208 -210 0
-208 -232 0
-209 -211 0
-209 -233 0
-210 -212 0
-210 -234 0
-211 -213 0
-211 -235 0
-212 -214 0
-212 -236 0
-213 -215 0
-213 -237 0
-214 -216 0
-214 -238 0
-215 -239 0
-216 -240 0
-217 -219 0
-217 -241 0
-218 -220 0
-218 -242 0
-219 -221 0
-219 -243 0
-220 -222 0
-220 -244 0
-221 -223 0
-221 -245 0
-222 -224 0
-222 -246 0
-223 -225 0
-223 -247 0
-224 -226 0
-224 -248 0
-225 -227 0
-225 -249 0
-226 -228 0
-226 -250 0
-227 -229 0
-227 -251 0
-228 -230 0
-228 -252 0
-229 -231 0
-229 -253 0
-230 -232 0
-230 -254 0
-231 -233 0
-231 -255 0
-232 -234 0
-232 -256 0
-233 -235 0
-233 -257 0
-234 -236 0
-234 -258 0
-235 -237 0
-235 -259 0
-236 -238 0
-236 -260 0
-237 -239 0
-237 -261 0
-238 -240 0
-238 -262 0
-239 -263 0
-240 -264 0
-241 -243 0
-241 -265 0
-242 -244 0
-242 -266 0
-243 -245 0
-243 -267 0
-244 -246 0
-244 -268 0
-245 -247 0
-245 -269 0
-246 -248 0
-246 -270 0
-247 -249 0
-247 -271 0
-248 -250 0
-248 -272 0
-249 -251 0
-249 -273 0
-250 -252 0
-250 -274 0
-251 -253 0
-251 -275 0
-252 -254 0
-252 -276 0
-253 -255 0
-253 -277 0
-254 -256 0
-254 -278 0
-255 -257 0
-255 -279 0
-256 -258 0
-256 -280 0
-257 -259 0
-257 -281 0
-258 -260 0
-258 -282 0
-259 -261 0
-259 -283 0
-260 -262 0
-260 -284 0
-261 -263 0
-261 -285 0
-262 -264 0
-262 -286 0
-263 -287 0
-264 -288 0
-265 -267 0
-266 -268 0
-267 -269 0
-268 -270 0
-269 -271 0
-270 -272 0
-271 -273 0
-272 -274 0
-273 -275 0
-274 -276 0
-275 -277 0
-276 -278 0
-277 -279 0
-278 -280 0
-279 -281 0
-280 -282 0
-281 -283 0
-282 -284 0
-283 -285 0
-284 -286 0
-285 -287 0
-286 -288 0
