p cnf 128 352
1 2 0
-1 -2 0
3 4 0
-3 -4 0
5 6 0
-5 -6 0
7 8 0
-7 -8 0
9 10 0
-9 -10 0
11 12 0
-11 -12 0
13 14 0
-13 -14 0
15 16 0
-15 -16 0
17 18 0
-17 -18 0
19 20 0
-19 -20 0
21 22 0
-21 -22 0
23 24 0
-23 -24 0
25 26 0
-25 -26 0
27 28 0
-27 -28 0
29 30 0
-29 -30 0
31 32 0
-31 -32 0
33 34 0
-33 -34 0
35 36 0
-35 -36 0
37 38 0
-37 -38 0
39 40 0
-39 -40 0
41 42 0
-41 -42 0
43 44 0
-43 -44 0
45 46 0
-45 -46 0
47 48 0
-47 -48 0
49 50 0
-49 -50 0
51 52 0
-51 -52 0
53 54 0
-53 -54 0
55 56 0
-55 -56 0
57 58 0
-57 -58 0
59 60 0
-59 -60 0
61 62 0
-61 -62 0
63 64 0
-63 -64 0
65 66 0
-65 -66 0
67 68 0
-67 -68 0
69 70 0
-69 -70 0
71 72 0
-71 -72 0
73 74 0
-73 -74 0
75 76 0
-75 -76 0
77 78 0
-77 -78 0
79 80 0
-79 -80 0
81 82 0
-81 -82 0
83 84 0
-83 -84 0
85 86 0
-85 -86 0
87 88 0
-87 -88 0
89 90 0
-89 -90 0
91 92 0
-91 -92 0
93 94 0
-93 -94 0
95 96 0
-95 -96 0
97 98 0
-97 -98 0
99 100 0
-99 -100 0
101 102 0
-101 -102 0
103 104 0
-103 -104 0
105 106 0
-105 -106 0
107 108 0
-107 -108 0
109 110 0
-109 -110 0
111 112 0
-111 -112 0
113 114 0
-113 -114 0
115 116 0
-115 -116 0
117 118 0
-117 -118 0
119 120 0
-119 -120 0
121 122 0
-121 -122 0
123 124 0
-123 -124 0
125 126 0
-125 -126 0
127 128 0
-127 -128 0
-1 -3 0
-1 -17 0
-2 -4 0
-2 -18 0
-3 -5 0
-3 -19 0
-4 -6 0
-4 -20 0
-5 -7 0
-5 -21 0
-6 -8 0
-6 -22 0
-7 -9 0
-7 -23 0
-8 -10 0
-8 -24 0
-9 -11 0
-9 -25 0
-10 -12 0
-10 -26 0
-11 -13 0
-11 -27 0
-12 -14 0
-12 -28 0
-13 -15 0
-13 -29 0
-14 -16 0
-14 -30 0
-15 -31 0
-16 -32 0
-17 -19 0
-17 -33 0
-18 -20 0
-18 -34 0
-19 -21 0
-19 -35 0
-20 -22 0
-20 -36 0
-21 -23 0
-21 -37 0
-22 -24 0
-22 -38 0
-23 -25 0
-23 -39 0
-24 -26 0
-24 -40 0
-25 -27 0
-25 -41 0
-26 -28 0
-26 -42 0
-27 -29 0
-27 -43 0
-28 -30 0
-28 -44 0
-29 -31 0
-29 -45 0
-30 -32 0
-30 -46 0
-31 -47 0
-32 -48 0
-33 -35 0
-33 -49 0
-34 -36 0
-34 -50 0
-35 -37 0
-35 -51 0
-36 -38 0
-36 -52 0
-37 -39 0
-37 -53 0
-38 -40 0
-38 -54 0
-39 -41 0
-39 -55 0
-40 -42 0
-40 -56 0
-41 -43 0
-41 -57 0
-42 -44 0
-42 -58 0
-43 -45 0
-43 -59 0
-44 -46 0
-44 -60 0
-45 -47 0
-45 -61 0
-46 -48 0
-46 -62 0
-47 -63 0
-48 -64 0
-49 -51 0
-49 -65 0
-50 -52 0
-50 -66 0
-51 -53 0
-51 -67 0
-52 -54 0
-52 -68 0
-53 -55 0
-53 -69 0
-54 -56 0
-54 -70 0
-55 -57 0
-55 -71 0
-56 -58 0
-56 -72 0
-57 -59 0
-57 -73 0
-58 -60 0
-58 -74 0
-59 -61 0
-59 -75 0
-60 -62 0
-60 -76 0
-61 -63 0
-61 -77 0
-62 -64 0
-62 -78 0
-63 -79 0
-64 -80 0
-65 -67 0
-65 -81 0
-66 -68 0
-66 -82 0
-67 -69 0
-67 -83 0
-68 -70 0
-68 -84 0
-69 -71 0
-69 -85 0
-70 -72 0
-70 -86 0
-71 -73 0
-71 -87 0
-72 -74 0
-72 -88 0
-73 -75 0
-73 -89 0
-74 -76 0
-74 -90 0
-75 -77 0
-75 -91 0
-76 -78 0
-76 -92 0
-77 -79 0
-77 -93 0
-78 -80 0
-78 -94 0
-79 -95 0
-80 -96 0
-81 -83 0
-81 -97 0
-82 -84 0
-82 -98 0
-83 -85 0
-83 -99 0
-84 -86 0
-84 -100 0
-85 -87 0
-85 -101 0
-86 -88 0
-86 -102 0
-87 -89 0
-87 -103 0
-88 -90 0
-88 -104 0
-89 -91 0
-89 -105 0
-90 -92 0
-90 -106 0
-91 -93 0
-91 -107 0
-92 -94 0
-92 -108 0
-93 -95 0
-93 -109 0
-94 -96 0
-94 -110 0
-95 -111 0
-96 -112 0
-97 -99 0
-97 -113 0
-98 -100 0
-98 -114 0
-99 -101 0
-99 -115 0
-100 -102 0
-100 -116 0
-101 -103 0
-101 -117 0
-102 -104 0
-102 -118 0
-103 -105 0
-103 -119 0
-104 -106 0
-104 -120 0
-105 -107 0
-105 -121 0
-106 -108 0
-106 -122 0
-107 -109 0
-107 -123 0
-108 -110 0
-108 -124 0
-109 -111 0
-109 -125 0
-110 -112 0
-110 -126 0
-111 -127 0
-112 -128 0
-113 -115 0
-114 -116 0
-115 -117 0
-116 -118 0
-117 -119 0
-118 -120 0
-119 -121 0
-120 -122 0
-121 -123 0
-122 -124 0
-123 -125 0
-124 -126 0
-125 -127 0
-126 -128 0
