p cnf 512 1472
1 2 0
-1 -2 0
3 4 0
-3 -4 0
5 6 0
-5 -6 0
7 8 0
-7 -8 0
9 10 0
-9 -10 0
11 12 0
-11 -12 0
13 14 0
-13 -14 0
15 16 0
-15 -16 0
17 18 0
-17 -18 0
19 20 0
-19 -20 0
21 22 0
-21 -22 0
23 24 0
-23 -24 0
25 26 0
-25 -26 0
27 28 0
-27 -28 0
29 30 0
-29 -30 0
31 32 0
-31 -32 0
33 34 0
-33 -34 0
35 36 0
-35 -36 0
37 38 0
-37 -38 0
39 40 0
-39 -40 0
41 42 0
-41 -42 0
43 44 0
-43 -44 0
45 46 0
-45 -46 0
47 48 0
-47 -48 0
49 50 0
-49 -50 0
51 52 0
-51 -52 0
53 54 0
-53 -54 0
55 56 0
-55 -56 0
57 58 0
-57 -58 0
59 60 0
-59 -60 0
61 62 0
-61 -62 0
63 64 0
-63 -64 0
65 66 0
-65 -66 0
67 68 0
-67 -68 0
69 70 0
-69 -70 0
71 72 0
-71 -72 0
73 74 0
-73 -74 0
75 76 0
-75 -76 0
77 78 0
-77 -78 0
79 80 0
-79 -80 0
81 82 0
-81 -82 0
83 84 0
-83 -84 0
85 86 0
-85 -86 0
87 88 0
-87 -88 0
89 90 0
-89 -90 0
91 92 0
-91 -92 0
93 94 0
-93 -94 0
95 96 0
-95 -96 0
97 98 0
-97 -98 0
99 100 0
-99 -100 0
101 102 0
-101 -102 0
103 104 0
-103 -104 0
105 106 0
-105 -106 0
107 108 0
-107 -108 0
109 110 0
-109 -110 0
111 112 0
-111 -112 0
113 114 0
-113 -114 0
115 116 0
-115 -116 0
117 118 0
-117 -118 0
119 120 0
-119 -120 0
121 122 0
-121 -122 0
123 124 0
-123 -124 0
125 126 0
-125 -126 0
127 128 0
-127 -128 0
129 130 0
-129 -130 0
131 132 0
-131 -132 0
133 134 0
-133 -134 0
135 136 0
-135 -136 0
137 138 0
-137 -138 0
139 140 0
-139 -140 0
141 142 0
-141 -142 0
143 144 0
-143 -144 0
145 146 0
-145 -146 0
147 148 0
-147 -148 0
149 150 0
-149 -150 0
151 152 0
-151 -152 0
153 154 0
-153 -154 0
155 156 0
-155 -156 0
157 158 0
-157 -158 0
159 160 0
-159 -160 0
161 162 0
-161 -162 0
163 164 0
-163 -164 0
165 166 0
-165 -166 0
167 168 0
-167 -168 0
169 170 0
-169 -170 0
171 172 0
-171 -172 0
173 174 0
-173 -174 0
175 176 0
-175 -176 0
177 178 0
-177 -178 0
179 180 0
-179 -180 0
181 182 0
-181 -182 0
183 184 0
-183 -184 0
185 186 0
-185 -186 0
187 188 0
-187 -188 0
189 190 0
-189 -190 0
191 192 0
-191 -192 0
193 194 0
-193 -194 0
195 196 0
-195 -196 0
197 198 0
-197 -198 0
199 200 0
-199 -200 0
201 202 0
-201 -202 0
203 204 0
-203 -204 0
205 206 0
-205 -206 0
207 208 0
-207 -208 0
209 210 0
-209 -210 0
211 212 0
-211 -212 0
213 214 0
-213 -214 0
215 216 0
-215 -216 0
217 218 0
-217 -218 0
219 220 0
-219 -220 0
221 222 0
-221 -222 0
223 224 0
-223 -224 0
225 226 0
-225 -226 0
227 228 0
-227 -228 0
229 230 0
-229 -230 0
231 232 0
-231 -232 0
233 234 0
-233 -234 0
235 236 0
-235 -236 0
237 238 0
-237 -238 0
239 240 0
-239 -240 0
241 242 0
-241 -242 0
243 244 0
-243 -244 0
245 246 0
-245 -246 0
247 248 0
-247 -248 0
249 250 0
-249 -250 0
251 252 0
-251 -252 0
253 254 0
-253 -254 0
255 256 0
-255 -256 0
257 258 0
-257 -258 0
259 260 0
-259 -260 0
261 262 0
-261 -262 0
263 264 0
-263 -264 0
265 266 0
-265 -266 0
267 268 0
-267 -268 0
269 270 0
-269 -270 0
271 272 0
-271 -272 0
273 274 0
-273 -274 0
275 276 0
-275 -276 0
277 278 0
-277 -278 0
279 280 0
-279 -280 0
281 282 0
-281 -282 0
283 284 0
-283 -284 0
285 286 0
-285 -286 0
287 288 0
-287 -288 0
289 290 0
-289 -290 0
291 292 0
-291 -292 0
293 294 0
-293 -294 0
295 296 0
-295 -296 0
297 298 0
-297 -298 0
299 300 0
-299 -300 0
301 302 0
-301 -302 0
303 304 0
-303 -304 0
305 306 0
-305 -306 0
307 308 0
-307 -308 0
309 310 0
-309 -310 0
311 312 0
-311 -312 0
313 314 0
-313 -314 0
315 316 0
-315 -316 0
317 318 0
-317 -318 0
319 320 0
-319 -320 0
321 322 0
-321 -322 0
323 324 0
-323 -324 0
325 326 0
-325 -326 0
327 328 0
-327 -328 0
329 330 0
-329 -330 0
331 332 0
-331 -332 0
333 334 0
-333 -334 0
335 336 0
-335 -336 0
337 338 0
-337 -338 0
339 340 0
-339 -340 0
341 342 0
-341 -342 0
343 344 0
-343 -344 0
345 346 0
-345 -346 0
347 348 0
-347 -348 0
349 350 0
-349 -350 0
351 352 0
-351 -352 0
353 354 0
-353 -354 0
355 356 0
-355 -356 0
357 358 0
-357 -358 0
359 360 0
-359 -360 0
361 362 0
-361 -362 0
363 364 0
-363 -364 0
365 366 0
-365 -366 0
367 368 0
-367 -368 0
369 370 0
-369 -370 0
371 372 0
-371 -372 0
373 374 0
-373 -374 0
375 376 0
-375 -376 0
377 378 0
-377 -378 0
379 380 0
-379 -380 0
381 382 0
-381 -382 0
383 384 0
-383 -384 0
385 386 0
-385 -386 0
387 388 0
-387 -388 0
389 390 0
-389 -390 0
391 392 0
-391 -392 0
393 394 0
-393 -394 0
395 396 0
-395 -396 0
397 398 0
-397 -398 0
399 400 0
-399 -400 0
401 402 0
-401 -402 0
403 404 0
-403 -404 0
405 406 0
-405 -406 0
407 408 0
-407 -408 0
409 410 0
-409 -410 0
411 412 0
-411 -412 0
413 414 0
-413 -414 0
415 416 0
-415 -416 0
417 418 0
-417 -418 0
419 420 0
-419 -420 0
421 422 0
-421 -422 0
423 424 0
-423 -424 0
425 426 0
-425 -426 0
427 428 0
-427 -428 0
429 430 0
-429 -430 0
431 432 0
-431 -432 0
433 434 0
-433 -434 0
435 436 0
-435 -436 0
437 438 0
-437 -438 0
439 440 0
-439 -440 0
441 442 0
-441 -442 0
443 444 0
-443 -444 0
445 446 0
-445 -446 0
447 448 0
-447 -448 0
449 450 0
-449 -450 0
451 452 0
-451 -452 0
453 454 0
-453 -454 0
455 456 0
-455 -456 0
457 458 0
-457 -458 0
459 460 0
-459 -460 0
461 462 0
-461 -462 0
463 464 0
-463 -464 0
465 466 0
-465 -466 0
467 468 0
-467 -468 0
469 470 0
-469 -470 0
471 472 0
-471 -472 0
473 474 0
-473 -474 0
475 476 0
-475 -476 0
477 478 0
-477 -478 0
479 480 0
-479 -480 0
481 482 0
-481 -482 0
483 484 0
-483 -484 0
485 486 0
-485 -486 0
487 488 0
-487 -488 0
489 490 0
-489 -490 0
491 492 0
-491 -492 0
493 494 0
-493 -494 0
495 496 0
-495 -496 0
497 498 0
-497 -498 0
499 500 0
-499 -500 0
501 502 0
-501 -502 0
503 504 0
-503 -504 0
505 506 0
-505 -506 0
507 508 0
-507 -508 0
509 510 0
-509 -510 0
511 512 0
-511 -512 0
-1 -3 0
-1 -33 0
-2 -4 0
-2 -34 0
-3 -5 0
-3 -35 0
-4 -6 0
-4 -36 0
-5 -7 0
-5 -37 0
-6 -8 0
-6 -38 0
-7 -9 0
-7 -39 0
-8 -10 0
-8 -40 0
-9 -11 0
-9 -41 0
-10 -12 0
-10 -42 0
-11 -13 0
-11 -43 0
-12 -14 0
-12 -44 0
-13 -15 0
-13 -45 0
-14 -16 0
-14 -46 0
-15 -17 0
-15 -47 0
-16 -18 0
-16 -48 0
-17 -19 0
-17 -49 0
-18 -20 0
-18 -50 0
-19 -21 0
-19 -51 0
-20 -22 0
-20 -52 0
-21 -23 0
-21 -53 0
-22 -24 0
-22 -54 0
-23 -25 0
-23 -55 0
-24 -26 0
-24 -56 0
-25 -27 0
-25 -57 0
-26 -28 0
-26 -58 0
-27 -29 0
-27 -59 0
-28 -30 0
-28 -60 0
-29 -31 0
-29 -61 0
-30 -32 0
-30 -62 0
-31 -63 0
-32 -64 0
-33 -35 0
-33 -65 0
-34 -36 0
-34 -66 0
-35 -37 0
-35 -67 0
-36 -38 0
-36 -68 0
-37 -39 0
-37 -69 0
-38 -40 0
-38 -70 0
-39 -41 0
-39 -71 0
-40 -42 0
-40 -72 0
-41 -43 0
-41 -73 0
-42 -44 0
-42 -74 0
-43 -45 0
-43 -75 0
-44 -46 0
-44 -76 0
-45 -47 0
-45 -77 0
-46 -48 0
-46 -78 0
-47 -49 0
-47 -79 0
-48 -50 0
-48 -80 0
-49 -51 0
-49 -81 0
-50 -52 0
-50 -82 0
-51 -53 0
-51 -83 0
-52 -54 0
-52 -84 0
-53 -55 0
-53 -85 0
-54 -56 0
-54 -86 0
-55 -57 0
-55 -87 0
-56 -58 0
-56 -88 0
-57 -59 0
-57 -89 0
-58 -60 0
-58 -90 0
-59 -61 0
-59 -91 0
-60 -62 0
-60 -92 0
-61 -63 0
-61 -93 0
-62 -64 0
-62 -94 0
-63 -95 0
-64 -96 0
-65 -67 0
-65 -97 0
-66 -68 0
-66 -98 0
-67 -69 0
-67 -99 0
-68 -70 0
-68 -100 0
-69 -71 0
-69 -101 0
-70 -72 0
-70 -102 0
-71 -73 0
-71 -103 0
-72 -74 0
-72 -104 0
-73 -75 0
-73 -105 0
-74 -76 0
-74 -106 0
-75 -77 0
-75 -107 0
-76 -78 0
-76 -108 0
-77 -79 0
-77 -109 0
-78 -80 0
-78 -110 0
-79 -81 0
-79 -111 0
-80 -82 0
-80 -112 0
-81 -83 0
-81 -113 0
-82 -84 0
-82 -114 0
-83 -85 0
-83 -115 0
-84 -86 0
-84 -116 0
-85 -87 0
-85 -117 0
-86 -88 0
-86 -118 0
-87 -89 0
-87 -119 0
-88 -90 0
-88 -120 0
-89 -91 0
-89 -121 0
-90 -92 0
-90 -122 0
-91 -93 0
-91 -123 0
-92 -94 0
-92 -124 0
-93 -95 0
-93 -125 0
-94 -96 0
-94 -126 0
-95 -127 0
-96 -128 0
-97 -99 0
-97 -129 0
-98 -100 0
-98 -130 0
-99 -101 0
-99 -131 0
-100 -102 0
-100 -132 0
-101 -103 0
-101 -133 0
-102 -104 0
-102 -134 0
-103 -105 0
-103 -135 0
-104 -106 0
-104 -136 0
-105 -107 0
-105 -137 0
-106 -108 0
-106 -138 0
-107 -109 0
-107 -139 0
-108 -110 0
-108 -140 0
-109 -111 0
-109 -141 0
-110 -112 0
-110 -142 0
-111 -113 0
-111 -143 0
-112 -114 0
-112 -144 0
-113 -115 0
-113 -145 0
-114 -116 0
-114 -146 0
-115 -117 0
-115 -147 0
-116 -118 0
-116 -148 0
-117 -119 0
-117 -149 0
-118 -120 0
-118 -150 0
-119 -121 0
-119 -151 0
-120 -122 0
-120 -152 0
-121 -123 0
-121 -153 0
-122 -124 0
-122 -154 0
-123 -125 0
-123 -155 0
-124 -126 0
-124 -156 0
-125 -127 0
-125 -157 0
-126 -128 0
-126 -158 0
-127 -159 0
-128 -160 0
-129 -131 0
-129 -161 0
-130 -132 0
-130 -162 0
-131 -133 0
-131 -163 0
-132 -134 0
-132 -164 0
-133 -135 0
-133 -165 0
-134 -136 0
-134 -166 0
-135 -137 0
-135 -167 0
-136 -138 0
-136 -168 0
-137 -139 0
-137 -169 0
-138 -140 0
-138 -170 0
-139 -141 0
-139 -171 0
-140 -142 0
-140 -172 0
-141 -143 0
-141 -173 0
-142 -144 0
-142 -174 0
-143 -145 0
-143 -175 0
-144 -146 0
-144 -176 0
-145 -147 0
-145 -177 0
-146 -148 0
-146 -178 0
-147 -149 0
-147 -179 0
-148 -150 0
-148 -180 0
-149 -151 0
-149 -181 0
-150 -152 0
-150 -182 0
-151 -153 0
-151 -183 0
-152 -154 0
-152 -184 0
-153 -155 0
-153 -185 0
-154 -156 0
-154 -186 0
-155 -157 0
-155 -187 0
-156 -158 0
-156 -188 0
-157 -159 0
-157 -189 0
-158 -160 0
-158 -190 0
-159 -191 0
-160 -192 0
-161 -163 0
-161 -193 0
-162 -164 0
-162 -194 0
-163 -165 0
-163 -195 0
-164 -166 0
-164 -196 0
-165 -167 0
-165 -197 0
-166 -168 0
-166 -198 0
-167 -169 0
-167 -199 0
-168 -170 0
-168 -200 0
-169 -171 0
-169 -201 0
-170 -172 0
-170 -202 0
-171 -173 0
-171 -203 0
-172 -174 0
-172 -204 0
-173 -175 0
-173 -205 0
-174 -176 0
-174 -206 0
-175 -177 0
-175 -207 0
-176 -178 0
-176 -208 0
-177 -179 0
-177 -209 0
-178 -180 0
-178 -210 0
-179 -181 0
-179 -211 0
-180 -182 0
-180 -212 0
-181 -183 0
-181 -213 0
-182 -184 0
-182 -214 0
-183 -185 0
-183 -215 0
-184 -186 0
-184 -216 0
-185 -187 0
-185 -217 0
-186 -188 0
-186 -218 0
-187 -189 0
-187 -219 0
-188 -190 0
-188 -220 0
-189 -191 0
-189 -221 0
-190 -192 0
-190 -222 0
-191 -223 0
-192 -224 0
-193 -195 0
-193 -225 0
-194 -196 0
-194 -226 0
-195 -197 0
-195 -227 0
-196 -198 0
-196 -228 0
-197 -199 0
-197 -229 0
-198 -200 0
-198 -230 0
-199 -201 0
-199 -231 0
-200 -202 0
-200 -232 0
-201 -203 0
-201 -233 0
-202 -204 0
-202 -234 0
-203 -205 0
-203 -235 0
-204 -206 0
-204 -236 0
-205 -207 0
-205 -237 0
-206 -208 0
-206 -238 0
-207 -209 0
-207 -239 0
-208 -210 0
-208 -240 0
-209 -211 0
-209 -241 0
-210 -212 0
-210 -242 0
-211 -213 0
-211 -243 0
-212 -214 0
-212 -244 0
-213 -215 0
-213 -245 0
-214 -216 0
-214 -246 0
-215 -217 0
-215 -247 0
-216 -218 0
-216 -248 0
-217 -219 0
-217 -249 0
-218 -220 0
-218 -250 0
-219 -221 0
-219 -251 0
-220 -222 0
-220 -252 0
-221 -223 0
-221 -253 0
-222 -224 0
-222 -254 0
-223 -255 0
-224 -256 0
-225 -227 0
-225 -257 0
-226 -228 0
-226 -258 0
-227 -229 0
-227 -259 0
-228 -230 0
-228 -260 0
-229 -231 0
-229 -261 0
-230 -232 0
-230 -262 0
-231 -233 0
-231 -263 0
-232 -234 0
-232 -264 0
-233 -235 0
-233 -265 0
-234 -236 0
-234 -266 0
-235 -237 0
-235 -267 0
-236 -238 0
-236 -268 0
-237 -239 0
-237 -269 0
-238 -240 0
-238 -270 0
-239 -241 0
-239 -271 0
-240 -242 0
-240 -272 0
-241 -243 0
-241 -273 0
-242 -244 0
-242 -274 0
-243 -245 0
-243 -275 0
-244 -246 0
-244 -276 0
-245 -247 0
-245 -277 0
-246 -248 0
-246 -278 0
-247 -249 0
-247 -279 0
-248 -250 0
-248 -280 0
-249 -251 0
-249 -281 0
-250 -252 0
-250 -282 0
-251 -253 0
-251 -283 0
-252 -254 0
-252 -284 0
-253 -255 0
-253 -285 0
-254 -256 0
-254 -286 0
-255 -287 0
-256 -288 0
-257 -259 0
-257 -289 0
-258 -260 0
-258 -290 0
-259 -261 0
-259 -291 0
-260 -262 0
-260 -292 0
-261 -263 0
-261 -293 0
-262 -264 0
-262 -294 0
-263 -265 0
-263 -295 0
-264 -266 0
-264 -296 0
-265 -267 0
-265 -297 0
-266 -268 0
-266 -298 0
-267 -269 0
-267 -299 0
-268 -270 0
-268 -300 0
-269 -271 0
-269 -301 0
-270 -272 0
-270 -302 0
-271 -273 0
-271 -303 0
-272 -274 0
-272 -304 0
-273 -275 0
-273 -305 0
-274 -276 0
-274 -306 0
-275 -277 0
-275 -307 0
-276 -278 0
-276 -308 0
-277 -279 0
-277 -309 0
-278 -280 0
-278 -310 0
-279 -281 0
-279 -311 0
-280 -282 0
-280 -312 0
-281 -283 0
-281 -313 0
-282 -284 0
-282 -314 0
-283 -285 0
-283 -315 0
-284 -286 0
-284 -316 0
-285 -287 0
-285 -317 0
-286 -288 0
-286 -318 0
-287 -319 0
-288 -320 0
-289 -291 0
-289 -321 0
-290 -292 0
-290 -322 0
-291 -293 0
-291 -323 0
-292 -294 0
-292 -324 0
-293 -295 0
-293 -325 0
-294 -296 0
-294 -326 0
-295 -297 0
-295 -327 0
-296 -298 0
-296 -328 0
-297 -299 0
-297 -329 0
-298 -300 0
-298 -330 0
-299 -301 0
-299 -331 0
-300 -302 0
-300 -332 0
-301 -303 0
-301 -333 0
-302 -304 0
-302 -334 0
-303 -305 0
-303 -335 0
-304 -306 0
-304 -336 0
-305 -307 0
-305 -337 0
-306 -308 0
-306 -338 0
-307 -309 0
-307 -339 0
-308 -310 0
-308 -340 0
-309 -311 0
-309 -341 0
-310 -312 0
-310 -342 0
-311 -313 0
-311 -343 0
-312 -314 0
-312 -344 0
-313 -315 0
-313 -345 0
-314 -316 0
-314 -346 0
-315 -317 0
-315 -347 0
-316 -318 0
-316 -348 0
-317 -319 0
-317 -349 0
-318 -320 0
-318 -350 0
-319 -351 0
-320 -352 0
-321 -323 0
-321 -353 0
-322 -324 0
-322 -354 0
-323 -325 0
-323 -355 0
-324 -326 0
-324 -356 0
-325 -327 0
-325 -357 0
-326 -328 0
-326 -358 0
-327 -329 0
-327 -359 0
-328 -330 0
-328 -360 0
-329 -331 0
-329 -361 0
-330 -332 0
-330 -362 0
-331 -333 0
-331 -363 0
-332 -334 0
-332 -364 0
-333 -335 0
-333 -365 0
-334 -336 0
-334 -366 0
-335 -337 0
-335 -367 0
-336 -338 0
-336 -368 0
-337 -339 0
-337 -369 0
-338 -340 0
-338 -370 0
-339 -341 0
-339 -371 0
-340 -342 0
-340 -372 0
-341 -343 0
-341 -373 0
-342 -344 0
-342 -374 0
-343 -345 0
-343 -375 0
-344 -346 0
-344 -376 0
-345 -347 0
-345 -377 0
-346 -348 0
-346 -378 0
-347 -349 0
-347 -379 0
-348 -350 0
-348 -380 0
-349 -351 0
-349 -381 0
-350 -352 0
-350 -382 0
-351 -383 0
-352 -384 0
-353 -355 0
-353 -385 0
-354 -356 0
-354 -386 0
-355 -357 0
-355 -387 0
-356 -358 0
-356 -388 0
-357 -359 0
-357 -389 0
-358 -360 0
-358 -390 0
-359 -361 0
-359 -391 0
-360 -362 0
-360 -392 0
-361 -363 0
-361 -393 0
-362 -364 0
-362 -394 0
-363 -365 0
-363 -395 0
-364 -366 0
-364 -396 0
-365 -367 0
-365 -397 0
-366 -368 0
-366 -398 0
-367 -369 0
-367 -399 0
-368 -370 0
-368 -400 0
-369 -371 0
-369 -401 0
-370 -372 0
-370 -402 0
-371 -373 0
-371 -403 0
-372 -374 0
-372 -404 0
-373 -375 0
-373 -405 0
-374 -376 0
-374 -406 0
-375 -377 0
-375 -407 0
-376 -378 0
-376 -408 0
-377 -379 0
-377 -409 0
-378 -380 0
-378 -410 0
-379 -381 0
-379 -411 0
-380 -382 0
-380 -412 0
-381 -383 0
-381 -413 0
-382 -384 0
-382 -414 0
-383 -415 0
-384 -416 0
-385 -387 0
-385 -417 0
-386 -388 0
-386 -418 0
-387 -389 0
-387 -419 0
-388 -390 0
-388 -420 0
-389 -391 0
-389 -421 0
-390 -392 0
-390 -422 0
-391 -393 0
-391 -423 0
-392 -394 0
-392 -424 0
-393 -395 0
-393 -425 0
-394 -396 0
-394 -426 0
-395 -397 0
-395 -427 0
-396 -398 0
-396 -428 0
-397 -399 0
-397 -429 0
-398 -400 0
-398 -430 0
-399 -401 0
-399 -431 0
-400 -402 0
-400 -432 0
-401 -403 0
-401 -433 0
-402 -404 0
-402 -434 0
-403 -405 0
-403 -435 0
-404 -406 0
-404 -436 0
-405 -407 0
-405 -437 0
-406 -408 0
-406 -438 0
-407 -409 0
-407 -439 0
-408 -410 0
-408 -440 0
-409 -411 0
-409 -441 0
-410 -412 0
-410 -442 0
-411 -413 0
-411 -443 0
-412 -414 0
-412 -444 0
-413 -415 0
-413 -445 0
-414 -416 0
-414 -446 0
-415 -447 0
-416 -448 0
-417 -419 0
-417 -449 0
-418 -420 0
-418 -450 0
-419 -421 0
-419 -451 0
-420 -422 0
-420 -452 0
-421 -423 0
-421 -453 0
-422 -424 0
-422 -454 0
-423 -425 0
-423 -455 0
-424 -426 0
-424 -456 0
-425 -427 0
-425 -457 0
-426 -428 0
-426 -458 0
-427 -429 0
-427 -459 0
-428 -430 0
-428 -460 0
-429 -431 0
-429 -461 0
-430 -432 0
-430 -462 0
-431 -433 0
-431 -463 0
-432 -434 0
-432 -464 0
-433 -435 0
-433 -465 0
-434 -436 0
-434 -466 0
-435 -437 0
-435 -467 0
-436 -438 0
-436 -468 0
-437 -439 0
-437 -469 0
-438 -440 0
-438 -470 0
-439 -441 0
-439 -471 0
-440 -442 0
-440 -472 0
-441 -443 0
-441 -473 0
-442 -444 0
-442 -474 0
-443 -445 0
-443 -475 0
-444 -446 0
-444 -476 0
-445 -447 0
-445 -477 0
-446 -448 0
-446 -478 0
-447 -479 0
-448 -480 0
-449 -451 0
-449 -481 0
-450 -452 0
-450 -482 0
-451 -453 0
-451 -483 0
-452 -454 0
-452 -484 0
-453 -455 0
-453 -485 0
-454 -456 0
-454 -486 0
-455 -457 0
-455 -487 0
-456 -458 0
-456 -488 0
-457 -459 0
-457 -489 0
-458 -460 0
-458 -490 0
-459 -461 0
-459 -491 0
-460 -462 0
-460 -492 0
-461 -463 0
-461 -493 0
-462 -464 0
-462 -494 0
-463 -465 0
-463 -495 0
-464 -466 0
-464 -496 0
-465 -467 0
-465 -497 0
-466 -468 0
-466 -498 0
-467 -469 0
-467 -499 0
-468 -470 0
-468 -500 0
-469 -471 0
-469 -501 0
-470 -472 0
-470 -502 0
-471 -473 0
-471 -503 0
-472 -474 0
-472 -504 0
-473 -475 0
-473 -505 0
-474 -476 0
-474 -506 0
-475 -477 0
-475 -507 0
-476 -478 0
-476 -508 0
-477 -479 0
-477 -509 0
-478 -480 0
-478 -510 0
-479 -511 0
-480 -512 0
-481 -483 0
-482 -484 0
-483 -485 0
-484 -486 0
-485 -487 0
-486 -488 0
-487 -489 0
-488 -490 0
-489 -491 0
-490 -492 0
-491 -493 0
-492 -494 0
-493 -495 0
-494 -496 0
-495 -497 0
-496 -498 0
-497 -499 0
-498 -500 0
-499 -501 0
-500 -502 0
-501 -503 0
-502 -504 0
-503 -505 0
-504 -506 0
-505 -507 0
-506 -508 0
-507 -509 0
-508 -510 0
-509 -511 0
-510 -512 0
