p cnf 800 2320
1 2 0
-1 -2 0
3 4 0
-3 -4 0
5 6 0
-5 -6 0
7 8 0
-7 -8 0
9 10 0
-9 -10 0
11 12 0
-11 -12 0
13 14 0
-13 -14 0
15 16 0
-15 -16 0
17 18 0
-17 -18 0
19 20 0
-19 -20 0
21 22 0
-21 -22 0
23 24 0
-23 -24 0
25 26 0
-25 -26 0
27 28 0
-27 -28 0
29 30 0
-29 -30 0
31 32 0
-31 -32 0
33 34 0
-33 -34 0
35 36 0
-35 -36 0
37 38 0
-37 -38 0
39 40 0
-39 -40 0
41 42 0
-41 -42 0
43 44 0
-43 -44 0
45 46 0
-45 -46 0
47 48 0
-47 -48 0
49 50 0
-49 -50 0
51 52 0
-51 -52 0
53 54 0
-53 -54 0
55 56 0
-55 -56 0
57 58 0
-57 -58 0
59 60 0
-59 -60 0
61 62 0
-61 -62 0
63 64 0
-63 -64 0
65 66 0
-65 -66 0
67 68 0
-67 -68 0
69 70 0
-69 -70 0
71 72 0
-71 -72 0
73 74 0
-73 -74 0
75 76 0
-75 -76 0
77 78 0
-77 -78 0
79 80 0
-79 -80 0
81 82 0
-81 -82 0
83 84 0
-83 -84 0
85 86 0
-85 -86 0
87 88 0
-87 -88 0
89 90 0
-89 -90 0
91 92 0
-91 -92 0
93 94 0
-93 -94 0
95 96 0
-95 -96 0
97 98 0
-97 -98 0
99 100 0
-99 -100 0
101 102 0
-101 -102 0
103 104 0
-103 -104 0
105 106 0
-105 -106 0
107 108 0
-107 -108 0
109 110 0
-109 -110 0
111 112 0
-111 -112 0
113 114 0
-113 -114 0
115 116 0
-115 -116 0
117 118 0
-117 -118 0
119 120 0
-119 -120 0
121 122 0
-121 -122 0
123 124 0
-123 -124 0
125 126 0
-125 -126 0
127 128 0
-127 -128 0
129 130 0
-129 -130 0
131 132 0
-131 -132 0
133 134 0
-133 -134 0
135 136 0
-135 -136 0
137 138 0
-137 -138 0
139 140 0
-139 -140 0
141 142 0
-141 -142 0
143 144 0
-143 -144 0
145 146 0
-145 -146 0
147 148 0
-147 -148 0
149 150 0
-149 -150 0
151 152 0
-151 -152 0
153 154 0
-153 -154 0
155 156 0
-155 -156 0
157 158 0
-157 -158 0
159 160 0
-159 -160 0
161 162 0
-161 -162 0
163 164 0
-163 -164 0
165 166 0
-165 -166 0
167 168 0
-167 -168 0
169 170 0
-169 -170 0
171 172 0
-171 -172 0
173 174 0
-173 -174 0
175 176 0
-175 -176 0
177 178 0
-177 -178 0
179 180 0
-179 -180 0
181 182 0
-181 -182 0
183 184 0
-183 -184 0
185 186 0
-185 -186 0
187 188 0
-187 -188 0
189 190 0
-189 -190 0
191 192 0
-191 -192 0
193 194 0
-193 -194 0
195 196 0
-195 -196 0
197 198 0
-197 -198 0
199 200 0
-199 -200 0
201 202 0
-201 -202 0
203 204 0
-203 -204 0
205 206 0
-205 -206 0
207 208 0
-207 -208 0
209 210 0
-209 -210 0
211 212 0
-211 -212 0
213 214 0
-213 -214 0
215 216 0
-215 -216 0
217 218 0
-217 -218 0
219 220 0
-219 -220 0
221 222 0
-221 -222 0
223 224 0
-223 -224 0
225 226 0
-225 -226 0
227 228 0
-227 -228 0
229 230 0
-229 -230 0
231 232 0
-231 -232 0
233 234 0
-233 -234 0
235 236 0
-235 -236 0
237 238 0
-237 -238 0
239 240 0
-239 -240 0
241 242 0
-241 -242 0
243 244 0
-243 -244 0
245 246 0
-245 -246 0
247 248 0
-247 -248 0
249 250 0
-249 -250 0
251 252 0
-251 -252 0
253 254 0
-253 -254 0
255 256 0
-255 -256 0
257 258 0
-257 -258 0
259 260 0
-259 -260 0
261 262 0
-261 -262 0
263 264 0
-263 -264 0
265 266 0
-265 -266 0
267 268 0
-267 -268 0
269 270 0
-269 -270 0
271 272 0
-271 -272 0
273 274 0
-273 -274 0
275 276 0
-275 -276 0
277 278 0
-277 -278 0
279 280 0
-279 -280 0
281 282 0
-281 -282 0
283 284 0
-283 -284 0
285 286 0
-285 -286 0
287 288 0
-287 -288 0
289 290 0
-289 -290 0
291 292 0
-291 -292 0
293 294 0
-293 -294 0
295 296 0
-295 -296 0
297 298 0
-297 -298 0
299 300 0
-299 -300 0
301 302 0
-301 -302 0
303 304 0
-303 -304 0
305 306 0
-305 -306 0
307 308 0
-307 -308 0
309 310 0
-309 -310 0
311 312 0
-311 -312 0
313 314 0
-313 -314 0
315 316 0
-315 -316 0
317 318 0
-317 -318 0
319 320 0
-319 -320 0
321 322 0
-321 -322 0
323 324 0
-323 -324 0
325 326 0
-325 -326 0
327 328 0
-327 -328 0
329 330 0
-329 -330 0
331 332 0
-331 -332 0
333 334 0
-333 -334 0
335 336 0
-335 -336 0
337 338 0
-337 -338 0
339 340 0
-339 -340 0
341 342 0
-341 -342 0
343 344 0
-343 -344 0
345 346 0
-345 -346 0
347 348 0
-347 -348 0
349 350 0
-349 -350 0
351 352 0
-351 -352 0
353 354 0
-353 -354 0
355 356 0
-355 -356 0
357 358 0
-357 -358 0
359 360 0
-359 -360 0
361 362 0
-361 -362 0
363 364 0
-363 -364 0
365 366 0
-365 -366 0
367 368 0
-367 -368 0
369 370 0
-369 -370 0
371 372 0
-371 -372 0
373 374 0
-373 -374 0
375 376 0
-375 -376 0
377 378 0
-377 -378 0
379 380 0
-379 -380 0
381 382 0
-381 -382 0
383 384 0
-383 -384 0
385 386 0
-385 -386 0
387 388 0
-387 -388 0
389 390 0
-389 -390 0
391 392 0
-391 -392 0
393 394 0
-393 -394 0
395 396 0
-395 -396 0
397 398 0
-397 -398 0
399 400 0
-399 -400 0
401 402 0
-401 -402 0
403 404 0
-403 -404 0
405 406 0
-405 -406 0
407 408 0
-407 -408 0
409 410 0
-409 -410 0
411 412 0
-411 -412 0
413 414 0
-413 -414 0
415 416 0
-415 -416 0
417 418 0
-417 -418 0
419 420 0
-419 -420 0
421 422 0
-421 -422 0
423 424 0
-423 -424 0
425 426 0
-425 -426 0
427 428 0
-427 -428 0
429 430 0
-429 -430 0
431 432 0
-431 -432 0
433 434 0
-433 -434 0
435 436 0
-435 -436 0
437 438 0
-437 -438 0
439 440 0
-439 -440 0
441 442 0
-441 -442 0
443 444 0
-443 -444 0
445 446 0
-445 -446 0
447 448 0
-447 -448 0
449 450 0
-449 -450 0
451 452 0
-451 -452 0
453 454 0
-453 -454 0
455 456 0
-455 -456 0
457 458 0
-457 -458 0
459 460 0
-459 -460 0
461 462 0
-461 -462 0
463 464 0
-463 -464 0
465 466 0
-465 -466 0
467 468 0
-467 -468 0
469 470 0
-469 -470 0
471 472 0
-471 -472 0
473 474 0
-473 -474 0
475 476 0
-475 -476 0
477 478 0
-477 -478 0
479 480 0
-479 -480 0
481 482 0
-481 -482 0
483 484 0
-483 -484 0
485 486 0
-485 -486 0
487 488 0
-487 -488 0
489 490 0
-489 -490 0
491 492 0
-491 -492 0
493 494 0
-493 -494 0
495 496 0
-495 -496 0
497 498 0
-497 -498 0
499 500 0
-499 -500 0
501 502 0
-501 -502 0
503 504 0
-503 -504 0
505 506 0
-505 -506 0
507 508 0
-507 -508 0
509 510 0
-509 -510 0
511 512 0
-511 -512 0
513 514 0
-513 -514 0
515 516 0
-515 -516 0
517 518 0
-517 -518 0
519 520 0
-519 -520 0
521 522 0
-521 -522 0
523 524 0
-523 -524 0
525 526 0
-525 -526 0
527 528 0
-527 -528 0
529 530 0
-529 -530 0
531 532 0
-531 -532 0
533 534 0
-533 -534 0
535 536 0
-535 -536 0
537 538 0
-537 -538 0
539 540 0
-539 -540 0
541 542 0
-541 -542 0
543 544 0
-543 -544 0
545 546 0
-545 -546 0
547 548 0
-547 -548 0
549 550 0
-549 -550 0
551 552 0
-551 -552 0
553 554 0
-553 -554 0
555 556 0
-555 -556 0
557 558 0
-557 -558 0
559 560 0
-559 -560 0
561 562 0
-561 -562 0
563 564 0
-563 -564 0
565 566 0
-565 -566 0
567 568 0
-567 -568 0
569 570 0
-569 -570 0
571 572 0
-571 -572 0
573 574 0
-573 -574 0
575 576 0
-575 -576 0
577 578 0
-577 -578 0
579 580 0
-579 -580 0
581 582 0
-581 -582 0
583 584 0
-583 -584 0
585 586 0
-585 -586 0
587 588 0
-587 -588 0
589 590 0
-589 -590 0
591 592 0
-591 -592 0
593 594 0
-593 -594 0
595 596 0
-595 -596 0
597 598 0
-597 -598 0
599 600 0
-599 -600 0
601 602 0
-601 -602 0
603 604 0
-603 -604 0
605 606 0
-605 -606 0
607 608 0
-607 -608 0
609 610 0
-609 -610 0
611 612 0
-611 -612 0
613 614 0
-613 -614 0
615 616 0
-615 -616 0
617 618 0
-617 -618 0
619 620 0
-619 -620 0
621 622 0
-621 -622 0
623 624 0
-623 -624 0
625 626 0
-625 -626 0
627 628 0
-627 -628 0
629 630 0
-629 -630 0
631 632 0
-631 -632 0
633 634 0
-633 -634 0
635 636 0
-635 -636 0
637 638 0
-637 -638 0
639 640 0
-639 -640 0
641 642 0
-641 -642 0
643 644 0
-643 -644 0
645 646 0
-645 -646 0
647 648 0
-647 -648 0
649 650 0
-649 -650 0
651 652 0
-651 -652 0
653 654 0
-653 -654 0
655 656 0
-655 -656 0
657 658 0
-657 -658 0
659 660 0
-659 -660 0
661 662 0
-661 -662 0
663 664 0
-663 -664 0
665 666 0
-665 -666 0
667 668 0
-667 -668 0
669 670 0
-669 -670 0
671 672 0
-671 -672 0
673 674 0
-673 -674 0
675 676 0
-675 -676 0
677 678 0
-677 -678 0
679 680 0
-679 -680 0
681 682 0
-681 -682 0
683 684 0
-683 -684 0
685 686 0
-685 -686 0
687 688 0
-687 -688 0
689 690 0
-689 -690 0
691 692 0
-691 -692 0
693 694 0
-693 -694 0
695 696 0
-695 -696 0
697 698 0
-697 -698 0
699 700 0
-699 -700 0
701 702 0
-701 -702 0
703 704 0
-703 -704 0
705 706 0
-705 -706 0
707 708 0
-707 -708 0
709 710 0
-709 -710 0
711 712 0
-711 -712 0
713 714 0
-713 -714 0
715 716 0
-715 -716 0
717 718 0
-717 -718 0
719 720 0
-719 -720 0
721 722 0
-721 -722 0
723 724 0
-723 -724 0
725 726 0
-725 -726 0
727 728 0
-727 -728 0
729 730 0
-729 -730 0
731 732 0
-731 -732 0
733 734 0
-733 -734 0
735 736 0
-735 -736 0
737 738 0
-737 -738 0
739 740 0
-739 -740 0
741 742 0
-741 -742 0
743 744 0
-743 -744 0
745 746 0
-745 -746 0
747 748 0
-747 -748 0
749 750 0
-749 -750 0
751 752 0
-751 -752 0
753 754 0
-753 -754 0
755 756 0
-755 -756 0
757 758 0
-757 -758 0
759 760 0
-759 -760 0
761 762 0
-761 -762 0
763 764 0
-763 -764 0
765 766 0
-765 -766 0
767 768 0
-767 -768 0
769 770 0
-769 -770 0
771 772 0
-771 -772 0
773 774 0
-773 -774 0
775 776 0
-775 -776 0
777 778 0
-777 -778 0
779 780 0
-779 -780 0
781 782 0
-781 -782 0
783 784 0
-783 -784 0
785 786 0
-785 -786 0
787 788 0
-787 -788 0
789 790 0
-789 -790 0
791 792 0
-791 -792 0
793 794 0
-793 -794 0
795 796 0
-795 -796 0
797 798 0
-797 -798 0
799 800 0
-799 -800 0
-1 -3 0
-1 -41 0
-2 -4 0
-2 -42 0
-3 -5 0
-3 -43 0
-4 -6 0
-4 -44 0
-5 -7 0
-5 -45 0
-6 -8 0
-6 -46 0
-7 -9 0
-7 -47 0
-8 -10 0
-8 -48 0
-9 -11 0
-9 -49 0
-10 -12 0
-10 -50 0
-11 -13 0
-11 -51 0
-12 -14 0
-12 -52 0
-13 -15 0
-13 -53 0
-14 -16 0
-14 -54 0
-15 -17 0
-15 -55 0
-16 -18 0
-16 -56 0
-17 -19 0
-17 -57 0
-18 -20 0
-18 -58 0
-19 -21 0
-19 -59 0
-20 -22 0
-20 -60 0
-21 -23 0
-21 -61 0
-22 -24 0
-22 -62 0
-23 -25 0
-23 -63 0
-24 -26 0
-24 -64 0
-25 -27 0
-25 -65 0
-26 -28 0
-26 -66 0
-27 -29 0
-27 -67 0
-28 -30 0
-28 -68 0
-29 -31 0
-29 -69 0
-30 -32 0
-30 -70 0
-31 -33 0
-31 -71 0
-32 -34 0
-32 -72 0
-33 -35 0
-33 -73 0
-34 -36 0
-34 -74 0
-35 -37 0
-35 -75 0
-36 -38 0
-36 -76 0
-37 -39 0
-37 -77 0
-38 -40 0
-38 -78 0
-39 -79 0
-40 -80 0
-41 -43 0
-41 -81 0
-42 -44 0
-42 -82 0
-43 -45 0
-43 -83 0
-44 -46 0
-44 -84 0
-45 -47 0
-45 -85 0
-46 -48 0
-46 -86 0
-47 -49 0
-47 -87 0
-48 -50 0
-48 -88 0
-49 -51 0
-49 -89 0
-50 -52 0
-50 -90 0
-51 -53 0
-51 -91 0
-52 -54 0
-52 -92 0
-53 -55 0
-53 -93 0
-54 -56 0
-54 -94 0
-55 -57 0
-55 -95 0
-56 -58 0
-56 -96 0
-57 -59 0
-57 -97 0
-58 -60 0
-58 -98 0
-59 -61 0
-59 -99 0
-60 -62 0
-60 -100 0
-61 -63 0
-61 -101 0
-62 -64 0
-62 -102 0
-63 -65 0
-63 -103 0
-64 -66 0
-64 -104 0
-65 -67 0
-65 -105 0
-66 -68 0
-66 -106 0
-67 -69 0
-67 -107 0
-68 -70 0
-68 -108 0
-69 -71 0
-69 -109 0
-70 -72 0
-70 -110 0
-71 -73 0
-71 -111 0
-72 -74 0
-72 -112 0
-73 -75 0
-73 -113 0
-74 -76 0
-74 -114 0
-75 -77 0
-75 -115 0
-76 -78 0
-76 -116 0
-77 -79 0
-77 -117 0
-78 -80 0
-78 -118 0
-79 -119 0
-80 -120 0
-81 -83 0
-81 -121 0
-82 -84 0
-82 -122 0
-83 -85 0
-83 -123 0
-84 -86 0
-84 -124 0
-85 -87 0
-85 -125 0
-86 -88 0
-86 -126 0
-87 -89 0
-87 -127 0
-88 -90 0
-88 -128 0
-89 -91 0
-89 -129 0
-90 -92 0
-90 -130 0
-91 -93 0
-91 -131 0
-92 -94 0
-92 -132 0
-93 -95 0
-93 -133 0
-94 -96 0
-94 -134 0
-95 -97 0
-95 -135 0
-96 -98 0
-96 -136 0
-97 -99 0
-97 -137 0
-98 -100 0
-98 -138 0
-99 -101 0
-99 -139 0
-100 -102 0
-100 -140 0
-101 -103 0
-101 -141 0
-102 -104 0
-102 -142 0
-103 -105 0
-103 -143 0
-104 -106 0
-104 -144 0
-105 -107 0
-105 -145 0
-106 -108 0
-106 -146 0
-107 -109 0
-107 -147 0
-108 -110 0
-108 -148 0
-109 -111 0
-109 -149 0
-110 -112 0
-110 -150 0
-111 -113 0
-111 -151 0
-112 -114 0
-112 -152 0
-113 -115 0
-113 -153 0
-114 -116 0
-114 -154 0
-115 -117 0
-115 -155 0
-116 -118 0
-116 -156 0
-117 -119 0
-117 -157 0
-118 -120 0
-118 -158 0
-119 -159 0
-120 -160 0
-121 -123 0
-121 -161 0
-122 -124 0
-122 -162 0
-123 -125 0
-123 -163 0
-124 -126 0
-124 -164 0
-125 -127 0
-125 -165 0
-126 -128 0
-126 -166 0
-127 -129 0
-127 -167 0
-128 -130 0
-128 -168 0
-129 -131 0
-129 -169 0
-130 -132 0
-130 -170 0
-131 -133 0
-131 -171 0
-132 -134 0
-132 -172 0
-133 -135 0
-133 -173 0
-134 -136 0
-134 -174 0
-135 -137 0
-135 -175 0
-136 -138 0
-136 -176 0
-137 -139 0
-137 -177 0
-138 -140 0
-138 -178 0
-139 -141 0
-139 -179 0
-140 -142 0
-140 -180 0
-141 -143 0
-141 -181 0
-142 -144 0
-142 -182 0
-143 -145 0
-143 -183 0
-144 -146 0
-144 -184 0
-145 -147 0
-145 -185 0
-146 -148 0
-146 -186 0
-147 -149 0
-147 -187 0
-148 -150 0
-148 -188 0
-149 -151 0
-149 -189 0
-150 -152 0
-150 -190 0
-151 -153 0
-151 -191 0
-152 -154 0
-152 -192 0
-153 -155 0
-153 -193 0
-154 -156 0
-154 -194 0
-155 -157 0
-155 -195 0
-156 -158 0
-156 -196 0
-157 -159 0
-157 -197 0
-158 -160 0
-158 -198 0
-159 -199 0
-160 -200 0
-161 -163 0
-161 -201 0
-162 -164 0
-162 -202 0
-163 -165 0
-163 -203 0
-164 -166 0
-164 -204 0
-165 -167 0
-165 -205 0
-166 -168 0
-166 -206 0
-167 -169 0
-167 -207 0
-168 -170 0
-168 -208 0
-169 -171 0
-169 -209 0
-170 -172 0
-170 -210 0
-171 -173 0
-171 -211 0
-172 -174 0
-172 -212 0
-173 -175 0
-173 -213 0
-174 -176 0
-174 -214 0
-175 -177 0
-175 -215 0
-176 -178 0
-176 -216 0
-177 -179 0
-177 -217 0
-178 -180 0
-178 -218 0
-179 -181 0
-179 -219 0
-180 -182 0
-180 -220 0
-181 -183 0
-181 -221 0
-182 -184 0
-182 -222 0
-183 -185 0
-183 -223 0
-184 -186 0
-184 -224 0
-185 -187 0
-185 -225 0
-186 -188 0
-186 -226 0
-187 -189 0
-187 -227 0
-188 -190 0
-188 -228 0
-189 -191 0
-189 -229 0
-190 -192 0
-190 -230 0
-191 -193 0
-191 -231 0
-192 -194 0
-192 -232 0
-193 -195 0
-193 -233 0
-194 -196 0
-194 -234 0
-195 -197 0
-195 -235 0
-196 -198 0
-196 -236 0
-197 -199 0
-197 -237 0
-198 -200 0
-198 -238 0
-199 -239 0
-200 -240 0
-201 -203 0
-201 -241 0
-202 -204 0
-202 -242 0
-203 -205 0
-203 -243 0
-204 -206 0
-204 -244 0
-205 -207 0
-205 -245 0
-206 -208 0
-206 -246 0
-207 -209 0
-207 -247 0
-208 -210 0
-208 -248 0
-209 -211 0
-209 -249 0
-210 -212 0
-210 -250 0
-211 -213 0
-211 -251 0
-212 -214 0
-212 -252 0
-213 -215 0
-213 -253 0
-214 -216 0
-214 -254 0
-215 -217 0
-215 -255 0
-216 -218 0
-216 -256 0
-217 -219 0
-217 -257 0
-218 -220 0
-218 -258 0
-219 -221 0
-219 -259 0
-220 -222 0
-220 -260 0
-221 -223 0
-221 -261 0
-222 -224 0
-222 -262 0
-223 -225 0
-223 -263 0
-224 -226 0
-224 -264 0
-225 -227 0
-225 -265 0
-226 -228 0
-226 -266 0
-227 -229 0
-227 -267 0
-228 -230 0
-228 -268 0
-229 -231 0
-229 -269 0
-230 -232 0
-230 -270 0
-231 -233 0
-231 -271 0
-232 -234 0
-232 -272 0
-233 -235 0
-233 -273 0
-234 -236 0
-234 -274 0
-235 -237 0
-235 -275 0
-236 -238 0
-236 -276 0
-237 -239 0
-237 -277 0
-238 -240 0
-238 -278 0
-239 -279 0
-240 -280 0
-241 -243 0
-241 -281 0
-242 -244 0
-242 -282 0
-243 -245 0
-243 -283 0
-244 -246 0
-244 -284 0
-245 -247 0
-245 -285 0
-246 -248 0
-246 -286 0
-247 -249 0
-247 -287 0
-248 -250 0
-248 -288 0
-249 -251 0
-249 -289 0
-250 -252 0
-250 -290 0
-251 -253 0
-251 -291 0
-252 -254 0
-252 -292 0
-253 -255 0
-253 -293 0
-254 -256 0
-254 -294 0
-255 -257 0
-255 -295 0
-256 -258 0
-256 -296 0
-257 -259 0
-257 -297 0
-258 -260 0
-258 -298 0
-259 -261 0
-259 -299 0
-260 -262 0
-260 -300 0
-261 -263 0
-261 -301 0
-262 -264 0
-262 -302 0
-263 -265 0
-263 -303 0
-264 -266 0
-264 -304 0
-265 -267 0
-265 -305 0
-266 -268 0
-266 -306 0
-267 -269 0
-267 -307 0
-268 -270 0
-268 -308 0
-269 -271 0
-269 -309 0
-270 -272 0
-270 -310 0
-271 -273 0
-271 -311 0
-272 -274 0
-272 -312 0
-273 -275 0
-273 -313 0
-274 -276 0
-274 -314 0
-275 -277 0
-275 -315 0
-276 -278 0
-276 -316 0
-277 -279 0
-277 -317 0
-278 -280 0
-278 -318 0
-279 -319 0
-280 -320 0
-281 -283 0
-281 -321 0
-282 -284 0
-282 -322 0
-283 -285 0
-283 -323 0
-284 -286 0
-284 -324 0
-285 -287 0
-285 -325 0
-286 -288 0
-286 -326 0
-287 -289 0
-287 -327 0
-288 -290 0
-288 -328 0
-289 -291 0
-289 -329 0
-290 -292 0
-290 -330 0
-291 -293 0
-291 -331 0
-292 -294 0
-292 -332 0
-293 -295 0
-293 -333 0
-294 -296 0
-294 -334 0
-295 -297 0
-295 -335 0
-296 -298 0
-296 -336 0
-297 -299 0
-297 -337 0
-298 -300 0
-298 -338 0
-299 -301 0
-299 -339 0
-300 -302 0
-300 -340 0
-301 -303 0
-301 -341 0
-302 -304 0
-302 -342 0
-303 -305 0
-303 -343 0
-304 -306 0
-304 -344 0
-305 -307 0
-305 -345 0
-306 -308 0
-306 -346 0
-307 -309 0
-307 -347 0
-308 -310 0
-308 -348 0
-309 -311 0
-309 -349 0
-310 -312 0
-310 -350 0
-311 -313 0
-311 -351 0
-312 -314 0
-312 -352 0
-313 -315 0
-313 -353 0
-314 -316 0
-314 -354 0
-315 -317 0
-315 -355 0
-316 -318 0
-316 -356 0
-317 -319 0
-317 -357 0
-318 -320 0
-318 -358 0
-319 -359 0
-320 -360 0
-321 -323 0
-321 -361 0
-322 -324 0
-322 -362 0
-323 -325 0
-323 -363 0
-324 -326 0
-324 -364 0
-325 -327 0
-325 -365 0
-326 -328 0
-326 -366 0
-327 -329 0
-327 -367 0
-328 -330 0
-328 -368 0
-329 -331 0
-329 -369 0
-330 -332 0
-330 -370 0
-331 -333 0
-331 -371 0
-332 -334 0
-332 -372 0
-333 -335 0
-333 -373 0
-334 -336 0
-334 -374 0
-335 -337 0
-335 -375 0
-336 -338 0
-336 -376 0
-337 -339 0
-337 -377 0
-338 -340 0
-338 -378 0
-339 -341 0
-339 -379 0
-340 -342 0
-340 -380 0
-341 -343 0
-341 -381 0
-342 -344 0
-342 -382 0
-343 -345 0
-343 -383 0
-344 -346 0
-344 -384 0
-345 -347 0
-345 -385 0
-346 -348 0
-346 -386 0
-347 -349 0
-347 -387 0
-348 -350 0
-348 -388 0
-349 -351 0
-349 -389 0
-350 -352 0
-350 -390 0
-351 -353 0
-351 -391 0
-352 -354 0
-352 -392 0
-353 -355 0
-353 -393 0
-354 -356 0
-354 -394 0
-355 -357 0
-355 -395 0
-356 -358 0
-356 -396 0
-357 -359 0
-357 -397 0
-358 -360 0
-358 -398 0
-359 -399 0
-360 -400 0
-361 -363 0
-361 -401 0
-362 -364 0
-362 -402 0
-363 -365 0
-363 -403 0
-364 -366 0
-364 -404 0
-365 -367 0
-365 -405 0
-366 -368 0
-366 -406 0
-367 -369 0
-367 -407 0
-368 -370 0
-368 -408 0
-369 -371 0
-369 -409 0
-370 -372 0
-370 -410 0
-371 -373 0
-371 -411 0
-372 -374 0
-372 -412 0
-373 -375 0
-373 -413 0
-374 -376 0
-374 -414 0
-375 -377 0
-375 -415 0
-376 -378 0
-376 -416 0
-377 -379 0
-377 -417 0
-378 -380 0
-378 -418 0
-379 -381 0
-379 -419 0
-380 -382 0
-380 -420 0
-381 -383 0
-381 -421 0
-382 -384 0
-382 -422 0
-383 -385 0
-383 -423 0
-384 -386 0
-384 -424 0
-385 -387 0
-385 -425 0
-386 -388 0
-386 -426 0
-387 -389 0
-387 -427 0
-388 -390 0
-388 -428 0
-389 -391 0
-389 -429 0
-390 -392 0
-390 -430 0
-391 -393 0
-391 -431 0
-392 -394 0
-392 -432 0
-393 -395 0
-393 -433 0
-394 -396 0
-394 -434 0
-395 -397 0
-395 -435 0
-396 -398 0
-396 -436 0
-397 -399 0
-397 -437 0
-398 -400 0
-398 -438 0
-399 -439 0
-400 -440 0
-401 -403 0
-401 -441 0
-402 -404 0
-402 -442 0
-403 -405 0
-403 -443 0
-404 -406 0
-404 -444 0
-405 -407 0
-405 -445 0
-406 -408 0
-406 -446 0
-407 -409 0
-407 -447 0
-408 -410 0
-408 -448 0
-409 -411 0
-409 -449 0
-410 -412 0
-410 -450 0
-411 -413 0
-411 -451 0
-412 -414 0
-412 -452 0
-413 -415 0
-413 -453 0
-414 -416 0
-414 -454 0
-415 -417 0
-415 -455 0
-416 -418 0
-416 -456 0
-417 -419 0
-417 -457 0
-418 -420 0
-418 -458 0
-419 -421 0
-419 -459 0
-420 -422 0
-420 -460 0
-421 -423 0
-421 -461 0
-422 -424 0
-422 -462 0
-423 -425 0
-423 -463 0
-424 -426 0
-424 -464 0
-425 -427 0
-425 -465 0
-426 -428 0
-426 -466 0
-427 -429 0
-427 -467 0
-428 -430 0
-428 -468 0
-429 -431 0
-429 -469 0
-430 -432 0
-430 -470 0
-431 -433 0
-431 -471 0
-432 -434 0
-432 -472 0
-433 -435 0
-433 -473 0
-434 -436 0
-434 -474 0
-435 -437 0
-435 -475 0
-436 -438 0
-436 -476 0
-437 -439 0
-437 -477 0
-438 -440 0
-438 -478 0
-439 -479 0
-440 -480 0
-441 -443 0
-441 -481 0
-442 -444 0
-442 -482 0
-443 -445 0
-443 -483 0
-444 -446 0
-444 -484 0
-445 -447 0
-445 -485 0
-446 -448 0
-446 -486 0
-447 -449 0
-447 -487 0
-448 -450 0
-448 -488 0
-449 -451 0
-449 -489 0
-450 -452 0
-450 -490 0
-451 -453 0
-451 -491 0
-452 -454 0
-452 -492 0
-453 -455 0
-453 -493 0
-454 -456 0
-454 -494 0
-455 -457 0
-455 -495 0
-456 -458 0
-456 -496 0
-457 -459 0
-457 -497 0
-458 -460 0
-458 -498 0
-459 -461 0
-459 -499 0
-460 -462 0
-460 -500 0
-461 -463 0
-461 -501 0
-462 -464 0
-462 -502 0
-463 -465 0
-463 -503 0
-464 -466 0
-464 -504 0
-465 -467 0
-465 -505 0
-466 -468 0
-466 -506 0
-467 -469 0
-467 -507 0
-468 -470 0
-468 -508 0
-469 -471 0
-469 -509 0
-470 -472 0
-470 -510 0
-471 -473 0
-471 -511 0
-472 -474 0
-472 -512 0
-473 -475 0
-473 -513 0
-474 -476 0
-474 -514 0
-475 -477 0
-475 -515 0
-476 -478 0
-476 -516 0
-477 -479 0
-477 -517 0
-478 -480 0
-478 -518 0
-479 -519 0
-480 -520 0
-481 -483 0
-481 -521 0
-482 -484 0
-482 -522 0
-483 -485 0
-483 -523 0
-484 -486 0
-484 -524 0
-485 -487 0
-485 -525 0
-486 -488 0
-486 -526 0
-487 -489 0
-487 -527 0
-488 -490 0
-488 -528 0
-489 -491 0
-489 -529 0
-490 -492 0
-490 -530 0
-491 -493 0
-491 -531 0
-492 -494 0
-492 -532 0
-493 -495 0
-493 -533 0
-494 -496 0
-494 -534 0
-495 -497 0
-495 -535 0
-496 -498 0
-496 -536 0
-497 -499 0
-497 -537 0
-498 -500 0
-498 -538 0
-499 -501 0
-499 -539 0
-500 -502 0
-500 -540 0
-501 -503 0
-501 -541 0
-502 -504 0
-502 -542 0
-503 -505 0
-503 -543 0
-504 -506 0
-504 -544 0
-505 -507 0
-505 -545 0
-506 -508 0
-506 -546 0
-507 -509 0
-507 -547 0
-508 -510 0
-508 -548 0
-509 -511 0
-509 -549 0
-510 -512 0
-510 -550 0
-511 -513 0
-511 -551 0
-512 -514 0
-512 -552 0
-513 -515 0
-513 -553 0
-514 -516 0
-514 -554 0
-515 -517 0
-515 -555 0
-516 -518 0
-516 -556 0
-517 -519 0
-517 -557 0
-518 -520 0
-518 -558 0
-519 -559 0
-520 -560 0
-521 -523 0
-521 -561 0
-522 -524 0
-522 -562 0
-523 -525 0
-523 -563 0
-524 -526 0
-524 -564 0
-525 -527 0
-525 -565 0
-526 -528 0
-526 -566 0
-527 -529 0
-527 -567 0
-528 -530 0
-528 -568 0
-529 -531 0
-529 -569 0
-530 -532 0
-530 -570 0
-531 -533 0
-531 -571 0
-532 -534 0
-532 -572 0
-533 -535 0
-533 -573 0
-534 -536 0
-534 -574 0
-535 -537 0
-535 -575 0
-536 -538 0
-536 -576 0
-537 -539 0
-537 -577 0
-538 -540 0
-538 -578 0
-539 -541 0
-539 -579 0
-540 -542 0
-540 -580 0
-541 -543 0
-541 -581 0
-542 -544 0
-542 -582 0
-543 -545 0
-543 -583 0
-544 -546 0
-544 -584 0
-545 -547 0
-545 -585 0
-546 -548 0
-546 -586 0
-547 -549 0
-547 -587 0
-548 -550 0
-548 -588 0
-549 -551 0
-549 -589 0
-550 -552 0
-550 -590 0
-551 -553 0
-551 -591 0
-552 -554 0
-552 -592 0
-553 -555 0
-553 -593 0
-554 -556 0
-554 -594 0
-555 -557 0
-555 -595 0
-556 -558 0
-556 -596 0
-557 -559 0
-557 -597 0
-558 -560 0
-558 -598 0
-559 -599 0
-560 -600 0
-561 -563 0
-561 -601 0
-562 -564 0
-562 -602 0
-563 -565 0
-563 -603 0
-564 -566 0
-564 -604 0
-565 -567 0
-565 -605 0
-566 -568 0
-566 -606 0
-567 -569 0
-567 -607 0
-568 -570 0
-568 -608 0
-569 -571 0
-569 -609 0
-570 -572 0
-570 -610 0
-571 -573 0
-571 -611 0
-572 -574 0
-572 -612 0
-573 -575 0
-573 -613 0
-574 -576 0
-574 -614 0
-575 -577 0
-575 -615 0
-576 -578 0
-576 -616 0
-577 -579 0
-577 -617 0
-578 -580 0
-578 -618 0
-579 -581 0
-579 -619 0
-580 -582 0
-580 -620 0
-581 -583 0
-581 -621 0
-582 -584 0
-582 -622 0
-583 -585 0
-583 -623 0
-584 -586 0
-584 -624 0
-585 -587 0
-585 -625 0
-586 -588 0
-586 -626 0
-587 -589 0
-587 -627 0
-588 -590 0
-588 -628 0
-589 -591 0
-589 -629 0
-590 -592 0
-590 -630 0
-591 -593 0
-591 -631 0
-592 -594 0
-592 -632 0
-593 -595 0
-593 -633 0
-594 -596 0
-594 -634 0
-595 -597 0
-595 -635 0
-596 -598 0
-596 -636 0
-597 -599 0
-597 -637 0
-598 -600 0
-598 -638 0
-599 -639 0
-600 -640 0
-601 -603 0
-601 -641 0
-602 -604 0
-602 -642 0
-603 -605 0
-603 -643 0
-604 -606 0
-604 -644 0
-605 -607 0
-605 -645 0
-606 -608 0
-606 -646 0
-607 -609 0
-607 -647 0
-608 -610 0
-608 -648 0
-609 -611 0
-609 -649 0
-610 -612 0
-610 -650 0
-611 -613 0
-611 -651 0
-612 -614 0
-612 -652 0
-613 -615 0
-613 -653 0
-614 -616 0
-614 -654 0
-615 -617 0
-615 -655 0
-616 -618 0
-616 -656 0
-617 -619 0
-617 -657 0
-618 -620 0
-618 -658 0
-619 -621 0
-619 -659 0
-620 -622 0
-620 -660 0
-621 -623 0
-621 -661 0
-622 -624 0
-622 -662 0
-623 -625 0
-623 -663 0
-624 -626 0
-624 -664 0
-625 -627 0
-625 -665 0
-626 -628 0
-626 -666 0
-627 -629 0
-627 -667 0
-628 -630 0
-628 -668 0
-629 -631 0
-629 -669 0
-630 -632 0
-630 -670 0
-631 -633 0
-631 -671 0
-632 -634 0
-632 -672 0
-633 -635 0
-633 -673 0
-634 -636 0
-634 -674 0
-635 -637 0
-635 -675 0
-636 -638 0
-636 -676 0
-637 -639 0
-637 -677 0
-638 -640 0
-638 -678 0
-639 -679 0
-640 -680 0
-641 -643 0
-641 -681 0
-642 -644 0
-642 -682 0
-643 -645 0
-643 -683 0
-644 -646 0
-644 -684 0
-645 -647 0
-645 -685 0
-646 -648 0
-646 -686 0
-647 -649 0
-647 -687 0
-648 -650 0
-648 -688 0
-649 -651 0
-649 -689 0
-650 -652 0
-650 -690 0
-651 -653 0
-651 -691 0
-652 -654 0
-652 -692 0
-653 -655 0
-653 -693 0
-654 -656 0
-654 -694 0
-655 -657 0
-655 -695 0
-656 -658 0
-656 -696 0
-657 -659 0
-657 -697 0
-658 -660 0
-658 -698 0
-659 -661 0
-659 -699 0
-660 -662 0
-660 -700 0
-661 -663 0
-661 -701 0
-662 -664 0
-662 -702 0
-663 -665 0
-663 -703 0
-664 -666 0
-664 -704 0
-665 -667 0
-665 -705 0
-666 -668 0
-666 -706 0
-667 -669 0
-667 -707 0
-668 -670 0
-668 -708 0
-669 -671 0
-669 -709 0
-670 -672 0
-670 -710 0
-671 -673 0
-671 -711 0
-672 -674 0
-672 -712 0
-673 -675 0
-673 -713 0
-674 -676 0
-674 -714 0
-675 -677 0
-675 -715 0
-676 -678 0
-676 -716 0
-677 -679 0
-677 -717 0
-678 -680 0
-678 -718 0
-679 -719 0
-680 -720 0
-681 -683 0
-681 -721 0
-682 -684 0
-682 -722 0
-683 -685 0
-683 -723 0
-684 -686 0
-684 -724 0
-685 -687 0
-685 -725 0
-686 -688 0
-686 -726 0
-687 -689 0
-687 -727 0
-688 -690 0
-688 -728 0
-689 -691 0
-689 -729 0
-690 -692 0
-690 -730 0
-691 -693 0
-691 -731 0
-692 -694 0
-692 -732 0
-693 -695 0
-693 -733 0
-694 -696 0
-694 -734 0
-695 -697 0
-695 -735 0
-696 -698 0
-696 -736 0
-697 -699 0
-697 -737 0
-698 -700 0
-698 -738 0
-699 -701 0
-699 -739 0
-700 -702 0
-700 -740 0
-701 -703 0
-701 -741 0
-702 -704 0
-702 -742 0
-703 -705 0
-703 -743 0
-704 -706 0
-704 -744 0
-705 -707 0
-705 -745 0
-706 -708 0
-706 -746 0
-707 -709 0
-707 -747 0
-708 -710 0
-708 -748 0
-709 -711 0
-709 -749 0
-710 -712 0
-710 -750 0
-711 -713 0
-711 -751 0
-712 -714 0
-712 -752 0
-713 -715 0
-713 -753 0
-714 -716 0
-714 -754 0
-715 -717 0
-715 -755 0
-716 -718 0
-716 -756 0
-717 -719 0
-717 -757 0
-718 -720 0
-718 -758 0
-719 -759 0
-720 -760 0
-721 -723 0
-721 -761 0
-722 -724 0
-722 -762 0
-723 -725 0
-723 -763 0
-724 -726 0
-724 -764 0
-725 -727 0
-725 -765 0
-726 -728 0
-726 -766 0
-727 -729 0
-727 -767 0
-728 -730 0
-728 -768 0
-729 -731 0
-729 -769 0
-730 -732 0
-730 -770 0
-731 -733 0
-731 -771 0
-732 -734 0
-732 -772 0
-733 -735 0
-733 -773 0
-734 -736 0
-734 -774 0
-735 -737 0
-735 -775 0
-736 -738 0
-736 -776 0
-737 -739 0
-737 -777 0
-738 -740 0
-738 -778 0
-739 -741 0
-739 -779 0
-740 -742 0
-740 -780 0
-741 -743 0
-741 -781 0
-742 -744 0
-742 -782 0
-743 -745 0
-743 -783 0
-744 -746 0
-744 -784 0
-745 -747 0
-745 -785 0
-746 -748 0
-746 -786 0
-747 -749 0
-747 -787 0
-748 -750 0
-748 -788 0
-749 -751 0
-749 -789 0
-750 -752 0
-750 -790 0
-751 -753 0
-751 -791 0
-752 -754 0
-752 -792 0
-753 -755 0
-753 -793 0
-754 -756 0
-754 -794 0
-755 -757 0
-755 -795 0
-756 -758 0
-756 -796 0
-757 -759 0
-757 -797 0
-758 -760 0
-758 -798 0
-759 -799 0
-760 -800 0
-761 -763 0
-762 -764 0
-763 -765 0
-764 -766 0
-765 -767 0
-766 -768 0
-767 -769 0
-768 -770 0
-769 -771 0
-770 -772 0
-771 -773 0
-772 -774 0
-773 -775 0
-774 -776 0
-775 -777 0
-776 -778 0
-777 -779 0
-778 -780 0
-779 -781 0
-780 -782 0
-781 -783 0
-782 -784 0
-783 -785 0
-784 -786 0
-785 -787 0
-786 -788 0
-787 -789 0
-788 -790 0
-789 -791 0
-790 -792 0
-791 -793 0
-792 -794 0
-793 -795 0
-794 -796 0
-795 -797 0
-796 -798 0
-797 -799 0
-798 -800 0
