p cnf 640 12576
1 2 3 4 5 6 7 8 9 10 0
-1 -2 0
-1 -3 0
-1 -4 0
-1 -5 0
-1 -6 0
-1 -7 0
-1 -8 0
-1 -9 0
-1 -10 0
-2 -3 0
-2 -4 0
-2 -5 0
-2 -6 0
-2 -7 0
-2 -8 0
-2 -9 0
-2 -10 0
-3 -4 0
-3 -5 0
-3 -6 0
-3 -7 0
-3 -8 0
-3 -9 0
-3 -10 0
-4 -5 0
-4 -6 0
-4 -7 0
-4 -8 0
-4 -9 0
-4 -10 0
-5 -6 0
-5 -7 0
-5 -8 0
-5 -9 0
-5 -10 0
-6 -7 0
-6 -8 0
-6 -9 0
-6 -10 0
-7 -8 0
-7 -9 0
-7 -10 0
-8 -9 0
-8 -10 0
-9 -10 0
11 12 13 14 15 16 17 18 19 20 0
-11 -12 0
-11 -13 0
-11 -14 0
-11 -15 0
-11 -16 0
-11 -17 0
-11 -18 0
-11 -19 0
-11 -20 0
-12 -13 0
-12 -14 0
-12 -15 0
-12 -16 0
-12 -17 0
-12 -18 0
-12 -19 0
-12 -20 0
-13 -14 0
-13 -15 0
-13 -16 0
-13 -17 0
-13 -18 0
-13 -19 0
-13 -20 0
-14 -15 0
-14 -16 0
-14 -17 0
-14 -18 0
-14 -19 0
-14 -20 0
-15 -16 0
-15 -17 0
-15 -18 0
-15 -19 0
-15 -20 0
-16 -17 0
-16 -18 0
-16 -19 0
-16 -20 0
-17 -18 0
-17 -19 0
-17 -20 0
-18 -19 0
-18 -20 0
-19 -20 0
21 22 23 24 25 26 27 28 29 30 0
-21 -22 0
-21 -23 0
-21 -24 0
-21 -25 0
-21 -26 0
-21 -27 0
-21 -28 0
-21 -29 0
-21 -30 0
-22 -23 0
-22 -24 0
-22 -25 0
-22 -26 0
-22 -27 0
-22 -28 0
-22 -29 0
-22 -30 0
-23 -24 0
-23 -25 0
-23 -26 0
-23 -27 0
-23 -28 0
-23 -29 0
-23 -30 0
-24 -25 0
-24 -26 0
-24 -27 0
-24 -28 0
-24 -29 0
-24 -30 0
-25 -26 0
-25 -27 0
-25 -28 0
-25 -29 0
-25 -30 0
-26 -27 0
-26 -28 0
-26 -29 0
-26 -30 0
-27 -28 0
-27 -29 0
-27 -30 0
-28 -29 0
-28 -30 0
-29 -30 0
31 32 33 34 35 36 37 38 39 40 0
-31 -32 0
-31 -33 0
-31 -34 0
-31 -35 0
-31 -36 0
-31 -37 0
-31 -38 0
-31 -39 0
-31 -40 0
-32 -33 0
-32 -34 0
-32 -35 0
-32 -36 0
-32 -37 0
-32 -38 0
-32 -39 0
-32 -40 0
-33 -34 0
-33 -35 0
-33 -36 0
-33 -37 0
-33 -38 0
-33 -39 0
-33 -40 0
-34 -35 0
-34 -36 0
-34 -37 0
-34 -38 0
-34 -39 0
-34 -40 0
-35 -36 0
-35 -37 0
-35 -38 0
-35 -39 0
-35 -40 0
-36 -37 0
-36 -38 0
-36 -39 0
-36 -40 0
-37 -38 0
-37 -39 0
-37 -40 0
-38 -39 0
-38 -40 0
-39 -40 0
41 42 43 44 45 46 47 48 49 50 0
-41 -42 0
-41 -43 0
-41 -44 0
-41 -45 0
-41 -46 0
-41 -47 0
-41 -48 0
-41 -49 0
-41 -50 0
-42 -43 0
-42 -44 0
-42 -45 0
-42 -46 0
-42 -47 0
-42 -48 0
-42 -49 0
-42 -50 0
-43 -44 0
-43 -45 0
-43 -46 0
-43 -47 0
-43 -48 0
-43 -49 0
-43 -50 0
-44 -45 0
-44 -46 0
-44 -47 0
-44 -48 0
-44 -49 0
-44 -50 0
-45 -46 0
-45 -47 0
-45 -48 0
-45 -49 0
-45 -50 0
-46 -47 0
-46 -48 0
-46 -49 0
-46 -50 0
-47 -48 0
-47 -49 0
-47 -50 0
-48 -49 0
-48 -50 0
-49 -50 0
51 52 53 54 55 56 57 58 59 60 0
-51 -52 0
-51 -53 0
-51 -54 0
-51 -55 0
-51 -56 0
-51 -57 0
-51 -58 0
-51 -59 0
-51 -60 0
-52 -53 0
-52 -54 0
-52 -55 0
-52 -56 0
-52 -57 0
-52 -58 0
-52 -59 0
-52 -60 0
-53 -54 0
-53 -55 0
-53 -56 0
-53 -57 0
-53 -58 0
-53 -59 0
-53 -60 0
-54 -55 0
-54 -56 0
-54 -57 0
-54 -58 0
-54 -59 0
-54 -60 0
-55 -56 0
-55 -57 0
-55 -58 0
-55 -59 0
-55 -60 0
-56 -57 0
-56 -58 0
-56 -59 0
-56 -60 0
-57 -58 0
-57 -59 0
-57 -60 0
-58 -59 0
-58 -60 0
-59 -60 0
61 62 63 64 65 66 67 68 69 70 0
-61 -62 0
-61 -63 0
-61 -64 0
-61 -65 0
-61 -66 0
-61 -67 0
-61 -68 0
-61 -69 0
-61 -70 0
-62 -63 0
-62 -64 0
-62 -65 0
-62 -66 0
-62 -67 0
-62 -68 0
-62 -69 0
-62 -70 0
-63 -64 0
-63 -65 0
-63 -66 0
-63 -67 0
-63 -68 0
-63 -69 0
-63 -70 0
-64 -65 0
-64 -66 0
-64 -67 0
-64 -68 0
-64 -69 0
-64 -70 0
-65 -66 0
-65 -67 0
-65 -68 0
-65 -69 0
-65 -70 0
-66 -67 0
-66 -68 0
-66 -69 0
-66 -70 0
-67 -68 0
-67 -69 0
-67 -70 0
-68 -69 0
-68 -70 0
-69 -70 0
71 72 73 74 75 76 77 78 79 80 0
-71 -72 0
-71 -73 0
-71 -74 0
-71 -75 0
-71 -76 0
-71 -77 0
-71 -78 0
-71 -79 0
-71 -80 0
-72 -73 0
-72 -74 0
-72 -75 0
-72 -76 0
-72 -77 0
-72 -78 0
-72 -79 0
-72 -80 0
-73 -74 0
-73 -75 0
-73 -76 0
-73 -77 0
-73 -78 0
-73 -79 0
-73 -80 0
-74 -75 0
-74 -76 0
-74 -77 0
-74 -78 0
-74 -79 0
-74 -80 0
-75 -76 0
-75 -77 0
-75 -78 0
-75 -79 0
-75 -80 0
-76 -77 0
-76 -78 0
-76 -79 0
-76 -80 0
-77 -78 0
-77 -79 0
-77 -80 0
-78 -79 0
-78 -80 0
-79 -80 0
81 82 83 84 85 86 87 88 89 90 0
-81 -82 0
-81 -83 0
-81 -84 0
-81 -85 0
-81 -86 0
-81 -87 0
-81 -88 0
-81 -89 0
-81 -90 0
-82 -83 0
-82 -84 0
-82 -85 0
-82 -86 0
-82 -87 0
-82 -88 0
-82 -89 0
-82 -90 0
-83 -84 0
-83 -85 0
-83 -86 0
-83 -87 0
-83 -88 0
-83 -89 0
-83 -90 0
-84 -85 0
-84 -86 0
-84 -87 0
-84 -88 0
-84 -89 0
-84 -90 0
-85 -86 0
-85 -87 0
-85 -88 0
-85 -89 0
-85 -90 0
-86 -87 0
-86 -88 0
-86 -89 0
-86 -90 0
-87 -88 0
-87 -89 0
-87 -90 0
-88 -89 0
-88 -90 0
-89 -90 0
91 92 93 94 95 96 97 98 99 100 0
-91 -92 0
-91 -93 0
-91 -94 0
-91 -95 0
-91 -96 0
-91 -97 0
-91 -98 0
-91 -99 0
-91 -100 0
-92 -93 0
-92 -94 0
-92 -95 0
-92 -96 0
-92 -97 0
-92 -98 0
-92 -99 0
-92 -100 0
-93 -94 0
-93 -95 0
-93 -96 0
-93 -97 0
-93 -98 0
-93 -99 0
-93 -100 0
-94 -95 0
-94 -96 0
-94 -97 0
-94 -98 0
-94 -99 0
-94 -100 0
-95 -96 0
-95 -97 0
-95 -98 0
-95 -99 0
-95 -100 0
-96 -97 0
-96 -98 0
-96 -99 0
-96 -100 0
-97 -98 0
-97 -99 0
-97 -100 0
-98 -99 0
-98 -100 0
-99 -100 0
101 102 103 104 105 106 107 108 109 110 0
-101 -102 0
-101 -103 0
-101 -104 0
-101 -105 0
-101 -106 0
-101 -107 0
-101 -108 0
-101 -109 0
-101 -110 0
-102 -103 0
-102 -104 0
-102 -105 0
-102 -106 0
-102 -107 0
-102 -108 0
-102 -109 0
-102 -110 0
-103 -104 0
-103 -105 0
-103 -106 0
-103 -107 0
-103 -108 0
-103 -109 0
-103 -110 0
-104 -105 0
-104 -106 0
-104 -107 0
-104 -108 0
-104 -109 0
-104 -110 0
-105 -106 0
-105 -107 0
-105 -108 0
-105 -109 0
-105 -110 0
-106 -107 0
-106 -108 0
-106 -109 0
-106 -110 0
-107 -108 0
-107 -109 0
-107 -110 0
-108 -109 0
-108 -110 0
-109 -110 0
111 112 113 114 115 116 117 118 119 120 0
-111 -112 0
-111 -113 0
-111 -114 0
-111 -115 0
-111 -116 0
-111 -117 0
-111 -118 0
-111 -119 0
-111 -120 0
-112 -113 0
-112 -114 0
-112 -115 0
-112 -116 0
-112 -117 0
-112 -118 0
-112 -119 0
-112 -120 0
-113 -114 0
-113 -115 0
-113 -116 0
-113 -117 0
-113 -118 0
-113 -119 0
-113 -120 0
-114 -115 0
-114 -116 0
-114 -117 0
-114 -118 0
-114 -119 0
-114 -120 0
-115 -116 0
-115 -117 0
-115 -118 0
-115 -119 0
-115 -120 0
-116 -117 0
-116 -118 0
-116 -119 0
-116 -120 0
-117 -118 0
-117 -119 0
-117 -120 0
-118 -119 0
-118 -120 0
-119 -120 0
121 122 123 124 125 126 127 128 129 130 0
-121 -122 0
-121 -123 0
-121 -124 0
-121 -125 0
-121 -126 0
-121 -127 0
-121 -128 0
-121 -129 0
-121 -130 0
-122 -123 0
-122 -124 0
-122 -125 0
-122 -126 0
-122 -127 0
-122 -128 0
-122 -129 0
-122 -130 0
-123 -124 0
-123 -125 0
-123 -126 0
-123 -127 0
-123 -128 0
-123 -129 0
-123 -130 0
-124 -125 0
-124 -126 0
-124 -127 0
-124 -128 0
-124 -129 0
-124 -130 0
-125 -126 0
-125 -127 0
-125 -128 0
-125 -129 0
-125 -130 0
-126 -127 0
-126 -128 0
-126 -129 0
-126 -130 0
-127 -128 0
-127 -129 0
-127 -130 0
-128 -129 0
-128 -130 0
-129 -130 0
131 132 133 134 135 136 137 138 139 140 0
-131 -132 0
-131 -133 0
-131 -134 0
-131 -135 0
-131 -136 0
-131 -137 0
-131 -138 0
-131 -139 0
-131 -140 0
-132 -133 0
-132 -134 0
-132 -135 0
-132 -136 0
-132 -137 0
-132 -138 0
-132 -139 0
-132 -140 0
-133 -134 0
-133 -135 0
-133 -136 0
-133 -137 0
-133 -138 0
-133 -139 0
-133 -140 0
-134 -135 0
-134 -136 0
-134 -137 0
-134 -138 0
-134 -139 0
-134 -140 0
-135 -136 0
-135 -137 0
-135 -138 0
-135 -139 0
-135 -140 0
-136 -137 0
-136 -138 0
-136 -139 0
-136 -140 0
-137 -138 0
-137 -139 0
-137 -140 0
-138 -139 0
-138 -140 0
-139 -140 0
141 142 143 144 145 146 147 148 149 150 0
-141 -142 0
-141 -143 0
-141 -144 0
-141 -145 0
-141 -146 0
-141 -147 0
-141 -148 0
-141 -149 0
-141 -150 0
-142 -143 0
-142 -144 0
-142 -145 0
-142 -146 0
-142 -147 0
-142 -148 0
-142 -149 0
-142 -150 0
-143 -144 0
-143 -145 0
-143 -146 0
-143 -147 0
-143 -148 0
-143 -149 0
-143 -150 0
-144 -145 0
-144 -146 0
-144 -147 0
-144 -148 0
-144 -149 0
-144 -150 0
-145 -146 0
-145 -147 0
-145 -148 0
-145 -149 0
-145 -150 0
-146 -147 0
-146 -148 0
-146 -149 0
-146 -150 0
-147 -148 0
-147 -149 0
-147 -150 0
-148 -149 0
-148 -150 0
-149 -150 0
151 152 153 154 155 156 157 158 159 160 0
-151 -152 0
-151 -153 0
-151 -154 0
-151 -155 0
-151 -156 0
-151 -157 0
-151 -158 0
-151 -159 0
-151 -160 0
-152 -153 0
-152 -154 0
-152 -155 0
-152 -156 0
-152 -157 0
-152 -158 0
-152 -159 0
-152 -160 0
-153 -154 0
-153 -155 0
-153 -156 0
-153 -157 0
-153 -158 0
-153 -159 0
-153 -160 0
-154 -155 0
-154 -156 0
-154 -157 0
-154 -158 0
-154 -159 0
-154 -160 0
-155 -156 0
-155 -157 0
-155 -158 0
-155 -159 0
-155 -160 0
-156 -157 0
-156 -158 0
-156 -159 0
-156 -160 0
-157 -158 0
-157 -159 0
-157 -160 0
-158 -159 0
-158 -160 0
-159 -160 0
161 162 163 164 165 166 167 168 169 170 0
-161 -162 0
-161 -163 0
-161 -164 0
-161 -165 0
-161 -166 0
-161 -167 0
-161 -168 0
-161 -169 0
-161 -170 0
-162 -163 0
-162 -164 0
-162 -165 0
-162 -166 0
-162 -167 0
-162 -168 0
-162 -169 0
-162 -170 0
-163 -164 0
-163 -165 0
-163 -166 0
-163 -167 0
-163 -168 0
-163 -169 0
-163 -170 0
-164 -165 0
-164 -166 0
-164 -167 0
-164 -168 0
-164 -169 0
-164 -170 0
-165 -166 0
-165 -167 0
-165 -168 0
-165 -169 0
-165 -170 0
-166 -167 0
-166 -168 0
-166 -169 0
-166 -170 0
-167 -168 0
-167 -169 0
-167 -170 0
-168 -169 0
-168 -170 0
-169 -170 0
171 172 173 174 175 176 177 178 179 180 0
-171 -172 0
-171 -173 0
-171 -174 0
-171 -175 0
-171 -176 0
-171 -177 0
-171 -178 0
-171 -179 0
-171 -180 0
-172 -173 0
-172 -174 0
-172 -175 0
-172 -176 0
-172 -177 0
-172 -178 0
-172 -179 0
-172 -180 0
-173 -174 0
-173 -175 0
-173 -176 0
-173 -177 0
-173 -178 0
-173 -179 0
-173 -180 0
-174 -175 0
-174 -176 0
-174 -177 0
-174 -178 0
-174 -179 0
-174 -180 0
-175 -176 0
-175 -177 0
-175 -178 0
-175 -179 0
-175 -180 0
-176 -177 0
-176 -178 0
-176 -179 0
-176 -180 0
-177 -178 0
-177 -179 0
-177 -180 0
-178 -179 0
-178 -180 0
-179 -180 0
181 182 183 184 185 186 187 188 189 190 0
-181 -182 0
-181 -183 0
-181 -184 0
-181 -185 0
-181 -186 0
-181 -187 0
-181 -188 0
-181 -189 0
-181 -190 0
-182 -183 0
-182 -184 0
-182 -185 0
-182 -186 0
-182 -187 0
-182 -188 0
-182 -189 0
-182 -190 0
-183 -184 0
-183 -185 0
-183 -186 0
-183 -187 0
-183 -188 0
-183 -189 0
-183 -190 0
-184 -185 0
-184 -186 0
-184 -187 0
-184 -188 0
-184 -189 0
-184 -190 0
-185 -186 0
-185 -187 0
-185 -188 0
-185 -189 0
-185 -190 0
-186 -187 0
-186 -188 0
-186 -189 0
-186 -190 0
-187 -188 0
-187 -189 0
-187 -190 0
-188 -189 0
-188 -190 0
-189 -190 0
191 192 193 194 195 196 197 198 199 200 0
-191 -192 0
-191 -193 0
-191 -194 0
-191 -195 0
-191 -196 0
-191 -197 0
-191 -198 0
-191 -199 0
-191 -200 0
-192 -193 0
-192 -194 0
-192 -195 0
-192 -196 0
-192 -197 0
-192 -198 0
-192 -199 0
-192 -200 0
-193 -194 0
-193 -195 0
-193 -196 0
-193 -197 0
-193 -198 0
-193 -199 0
-193 -200 0
-194 -195 0
-194 -196 0
-194 -197 0
-194 -198 0
-194 -199 0
-194 -200 0
-195 -196 0
-195 -197 0
-195 -198 0
-195 -199 0
-195 -200 0
-196 -197 0
-196 -198 0
-196 -199 0
-196 -200 0
-197 -198 0
-197 -199 0
-197 -200 0
-198 -199 0
-198 -200 0
-199 -200 0
201 202 203 204 205 206 207 208 209 210 0
-201 -202 0
-201 -203 0
-201 -204 0
-201 -205 0
-201 -206 0
-201 -207 0
-201 -208 0
-201 -209 0
-201 -210 0
-202 -203 0
-202 -204 0
-202 -205 0
-202 -206 0
-202 -207 0
-202 -208 0
-202 -209 0
-202 -210 0
-203 -204 0
-203 -205 0
-203 -206 0
-203 -207 0
-203 -208 0
-203 -209 0
-203 -210 0
-204 -205 0
-204 -206 0
-204 -207 0
-204 -208 0
-204 -209 0
-204 -210 0
-205 -206 0
-205 -207 0
-205 -208 0
-205 -209 0
-205 -210 0
-206 -207 0
-206 -208 0
-206 -209 0
-206 -210 0
-207 -208 0
-207 -209 0
-207 -210 0
-208 -209 0
-208 -210 0
-209 -210 0
211 212 213 214 215 216 217 218 219 220 0
-211 -212 0
-211 -213 0
-211 -214 0
-211 -215 0
-211 -216 0
-211 -217 0
-211 -218 0
-211 -219 0
-211 -220 0
-212 -213 0
-212 -214 0
-212 -215 0
-212 -216 0
-212 -217 0
-212 -218 0
-212 -219 0
-212 -220 0
-213 -214 0
-213 -215 0
-213 -216 0
-213 -217 0
-213 -218 0
-213 -219 0
-213 -220 0
-214 -215 0
-214 -216 0
-214 -217 0
-214 -218 0
-214 -219 0
-214 -220 0
-215 -216 0
-215 -217 0
-215 -218 0
-215 -219 0
-215 -220 0
-216 -217 0
-216 -218 0
-216 -219 0
-216 -220 0
-217 -218 0
-217 -219 0
-217 -220 0
-218 -219 0
-218 -220 0
-219 -220 0
221 222 223 224 225 226 227 228 229 230 0
-221 -222 0
-221 -223 0
-221 -224 0
-221 -225 0
-221 -226 0
-221 -227 0
-221 -228 0
-221 -229 0
-221 -230 0
-222 -223 0
-222 -224 0
-222 -225 0
-222 -226 0
-222 -227 0
-222 -228 0
-222 -229 0
-222 -230 0
-223 -224 0
-223 -225 0
-223 -226 0
-223 -227 0
-223 -228 0
-223 -229 0
-223 -230 0
-224 -225 0
-224 -226 0
-224 -227 0
-224 -228 0
-224 -229 0
-224 -230 0
-225 -226 0
-225 -227 0
-225 -228 0
-225 -229 0
-225 -230 0
-226 -227 0
-226 -228 0
-226 -229 0
-226 -230 0
-227 -228 0
-227 -229 0
-227 -230 0
-228 -229 0
-228 -230 0
-229 -230 0
231 232 233 234 235 236 237 238 239 240 0
-231 -232 0
-231 -233 0
-231 -234 0
-231 -235 0
-231 -236 0
-231 -237 0
-231 -238 0
-231 -239 0
-231 -240 0
-232 -233 0
-232 -234 0
-232 -235 0
-232 -236 0
-232 -237 0
-232 -238 0
-232 -239 0
-232 -240 0
-233 -234 0
-233 -235 0
-233 -236 0
-233 -237 0
-233 -238 0
-233 -239 0
-233 -240 0
-234 -235 0
-234 -236 0
-234 -237 0
-234 -238 0
-234 -239 0
-234 -240 0
-235 -236 0
-235 -237 0
-235 -238 0
-235 -239 0
-235 -240 0
-236 -237 0
-236 -238 0
-236 -239 0
-236 -240 0
-237 -238 0
-237 -239 0
-237 -240 0
-238 -239 0
-238 -240 0
-239 -240 0
241 242 243 244 245 246 247 248 249 250 0
-241 -242 0
-241 -243 0
-241 -244 0
-241 -245 0
-241 -246 0
-241 -247 0
-241 -248 0
-241 -249 0
-241 -250 0
-242 -243 0
-242 -244 0
-242 -245 0
-242 -246 0
-242 -247 0
-242 -248 0
-242 -249 0
-242 -250 0
-243 -244 0
-243 -245 0
-243 -246 0
-243 -247 0
-243 -248 0
-243 -249 0
-243 -250 0
-244 -245 0
-244 -246 0
-244 -247 0
-244 -248 0
-244 -249 0
-244 -250 0
-245 -246 0
-245 -247 0
-245 -248 0
-245 -249 0
-245 -250 0
-246 -247 0
-246 -248 0
-246 -249 0
-246 -250 0
-247 -248 0
-247 -249 0
-247 -250 0
-248 -249 0
-248 -250 0
-249 -250 0
251 252 253 254 255 256 257 258 259 260 0
-251 -252 0
-251 -253 0
-251 -254 0
-251 -255 0
-251 -256 0
-251 -257 0
-251 -258 0
-251 -259 0
-251 -260 0
-252 -253 0
-252 -254 0
-252 -255 0
-252 -256 0
-252 -257 0
-252 -258 0
-252 -259 0
-252 -260 0
-253 -254 0
-253 -255 0
-253 -256 0
-253 -257 0
-253 -258 0
-253 -259 0
-253 -260 0
-254 -255 0
-254 -256 0
-254 -257 0
-254 -258 0
-254 -259 0
-254 -260 0
-255 -256 0
-255 -257 0
-255 -258 0
-255 -259 0
-255 -260 0
-256 -257 0
-256 -258 0
-256 -259 0
-256 -260 0
-257 -258 0
-257 -259 0
-257 -260 0
-258 -259 0
-258 -260 0
-259 -260 0
261 262 263 264 265 266 267 268 269 270 0
-261 -262 0
-261 -263 0
-261 -264 0
-261 -265 0
-261 -266 0
-261 -267 0
-261 -268 0
-261 -269 0
-261 -270 0
-262 -263 0
-262 -264 0
-262 -265 0
-262 -266 0
-262 -267 0
-262 -268 0
-262 -269 0
-262 -270 0
-263 -264 0
-263 -265 0
-263 -266 0
-263 -267 0
-263 -268 0
-263 -269 0
-263 -270 0
-264 -265 0
-264 -266 0
-264 -267 0
-264 -268 0
-264 -269 0
-264 -270 0
-265 -266 0
-265 -267 0
-265 -268 0
-265 -269 0
-265 -270 0
-266 -267 0
-266 -268 0
-266 -269 0
-266 -270 0
-267 -268 0
-267 -269 0
-267 -270 0
-268 -269 0
-268 -270 0
-269 -270 0
271 272 273 274 275 276 277 278 279 280 0
-271 -272 0
-271 -273 0
-271 -274 0
-271 -275 0
-271 -276 0
-271 -277 0
-271 -278 0
-271 -279 0
-271 -280 0
-272 -273 0
-272 -274 0
-272 -275 0
-272 -276 0
-272 -277 0
-272 -278 0
-272 -279 0
-272 -280 0
-273 -274 0
-273 -275 0
-273 -276 0
-273 -277 0
-273 -278 0
-273 -279 0
-273 -280 0
-274 -275 0
-274 -276 0
-274 -277 0
-274 -278 0
-274 -279 0
-274 -280 0
-275 -276 0
-275 -277 0
-275 -278 0
-275 -279 0
-275 -280 0
-276 -277 0
-276 -278 0
-276 -279 0
-276 -280 0
-277 -278 0
-277 -279 0
-277 -280 0
-278 -279 0
-278 -280 0
-279 -280 0
281 282 283 284 285 286 287 288 289 290 0
-281 -282 0
-281 -283 0
-281 -284 0
-281 -285 0
-281 -286 0
-281 -287 0
-281 -288 0
-281 -289 0
-281 -290 0
-282 -283 0
-282 -284 0
-282 -285 0
-282 -286 0
-282 -287 0
-282 -288 0
-282 -289 0
-282 -290 0
-283 -284 0
-283 -285 0
-283 -286 0
-283 -287 0
-283 -288 0
-283 -289 0
-283 -290 0
-284 -285 0
-284 -286 0
-284 -287 0
-284 -288 0
-284 -289 0
-284 -290 0
-285 -286 0
-285 -287 0
-285 -288 0
-285 -289 0
-285 -290 0
-286 -287 0
-286 -288 0
-286 -289 0
-286 -290 0
-287 -288 0
-287 -289 0
-287 -290 0
-288 -289 0
-288 -290 0
-289 -290 0
291 292 293 294 295 296 297 298 299 300 0
-291 -292 0
-291 -293 0
-291 -294 0
-291 -295 0
-291 -296 0
-291 -297 0
-291 -298 0
-291 -299 0
-291 -300 0
-292 -293 0
-292 -294 0
-292 -295 0
-292 -296 0
-292 -297 0
-292 -298 0
-292 -299 0
-292 -300 0
-293 -294 0
-293 -295 0
-293 -296 0
-293 -297 0
-293 -298 0
-293 -299 0
-293 -300 0
-294 -295 0
-294 -296 0
-294 -297 0
-294 -298 0
-294 -299 0
-294 -300 0
-295 -296 0
-295 -297 0
-295 -298 0
-295 -299 0
-295 -300 0
-296 -297 0
-296 -298 0
-296 -299 0
-296 -300 0
-297 -298 0
-297 -299 0
-297 -300 0
-298 -299 0
-298 -300 0
-299 -300 0
301 302 303 304 305 306 307 308 309 310 0
-301 -302 0
-301 -303 0
-301 -304 0
-301 -305 0
-301 -306 0
-301 -307 0
-301 -308 0
-301 -309 0
-301 -310 0
-302 -303 0
-302 -304 0
-302 -305 0
-302 -306 0
-302 -307 0
-302 -308 0
-302 -309 0
-302 -310 0
-303 -304 0
-303 -305 0
-303 -306 0
-303 -307 0
-303 -308 0
-303 -309 0
-303 -310 0
-304 -305 0
-304 -306 0
-304 -307 0
-304 -308 0
-304 -309 0
-304 -310 0
-305 -306 0
-305 -307 0
-305 -308 0
-305 -309 0
-305 -310 0
-306 -307 0
-306 -308 0
-306 -309 0
-306 -310 0
-307 -308 0
-307 -309 0
-307 -310 0
-308 -309 0
-308 -310 0
-309 -310 0
311 312 313 314 315 316 317 318 319 320 0
-311 -312 0
-311 -313 0
-311 -314 0
-311 -315 0
-311 -316 0
-311 -317 0
-311 -318 0
-311 -319 0
-311 -320 0
-312 -313 0
-312 -314 0
-312 -315 0
-312 -316 0
-312 -317 0
-312 -318 0
-312 -319 0
-312 -320 0
-313 -314 0
-313 -315 0
-313 -316 0
-313 -317 0
-313 -318 0
-313 -319 0
-313 -320 0
-314 -315 0
-314 -316 0
-314 -317 0
-314 -318 0
-314 -319 0
-314 -320 0
-315 -316 0
-315 -317 0
-315 -318 0
-315 -319 0
-315 -320 0
-316 -317 0
-316 -318 0
-316 -319 0
-316 -320 0
-317 -318 0
-317 -319 0
-317 -320 0
-318 -319 0
-318 -320 0
-319 -320 0
321 322 323 324 325 326 327 328 329 330 0
-321 -322 0
-321 -323 0
-321 -324 0
-321 -325 0
-321 -326 0
-321 -327 0
-321 -328 0
-321 -329 0
-321 -330 0
-322 -323 0
-322 -324 0
-322 -325 0
-322 -326 0
-322 -327 0
-322 -328 0
-322 -329 0
-322 -330 0
-323 -324 0
-323 -325 0
-323 -326 0
-323 -327 0
-323 -328 0
-323 -329 0
-323 -330 0
-324 -325 0
-324 -326 0
-324 -327 0
-324 -328 0
-324 -329 0
-324 -330 0
-325 -326 0
-325 -327 0
-325 -328 0
-325 -329 0
-325 -330 0
-326 -327 0
-326 -328 0
-326 -329 0
-326 -330 0
-327 -328 0
-327 -329 0
-327 -330 0
-328 -329 0
-328 -330 0
-329 -330 0
331 332 333 334 335 336 337 338 339 340 0
-331 -332 0
-331 -333 0
-331 -334 0
-331 -335 0
-331 -336 0
-331 -337 0
-331 -338 0
-331 -339 0
-331 -340 0
-332 -333 0
-332 -334 0
-332 -335 0
-332 -336 0
-332 -337 0
-332 -338 0
-332 -339 0
-332 -340 0
-333 -334 0
-333 -335 0
-333 -336 0
-333 -337 0
-333 -338 0
-333 -339 0
-333 -340 0
-334 -335 0
-334 -336 0
-334 -337 0
-334 -338 0
-334 -339 0
-334 -340 0
-335 -336 0
-335 -337 0
-335 -338 0
-335 -339 0
-335 -340 0
-336 -337 0
-336 -338 0
-336 -339 0
-336 -340 0
-337 -338 0
-337 -339 0
-337 -340 0
-338 -339 0
-338 -340 0
-339 -340 0
341 342 343 344 345 346 347 348 349 350 0
-341 -342 0
-341 -343 0
-341 -344 0
-341 -345 0
-341 -346 0
-341 -347 0
-341 -348 0
-341 -349 0
-341 -350 0
-342 -343 0
-342 -344 0
-342 -345 0
-342 -346 0
-342 -347 0
-342 -348 0
-342 -349 0
-342 -350 0
-343 -344 0
-343 -345 0
-343 -346 0
-343 -347 0
-343 -348 0
-343 -349 0
-343 -350 0
-344 -345 0
-344 -346 0
-344 -347 0
-344 -348 0
-344 -349 0
-344 -350 0
-345 -346 0
-345 -347 0
-345 -348 0
-345 -349 0
-345 -350 0
-346 -347 0
-346 -348 0
-346 -349 0
-346 -350 0
-347 -348 0
-347 -349 0
-347 -350 0
-348 -349 0
-348 -350 0
-349 -350 0
351 352 353 354 355 356 357 358 359 360 0
-351 -352 0
-351 -353 0
-351 -354 0
-351 -355 0
-351 -356 0
-351 -357 0
-351 -358 0
-351 -359 0
-351 -360 0
-352 -353 0
-352 -354 0
-352 -355 0
-352 -356 0
-352 -357 0
-352 -358 0
-352 -359 0
-352 -360 0
-353 -354 0
-353 -355 0
-353 -356 0
-353 -357 0
-353 -358 0
-353 -359 0
-353 -360 0
-354 -355 0
-354 -356 0
-354 -357 0
-354 -358 0
-354 -359 0
-354 -360 0
-355 -356 0
-355 -357 0
-355 -358 0
-355 -359 0
-355 -360 0
-356 -357 0
-356 -358 0
-356 -359 0
-356 -360 0
-357 -358 0
-357 -359 0
-357 -360 0
-358 -359 0
-358 -360 0
-359 -360 0
361 362 363 364 365 366 367 368 369 370 0
-361 -362 0
-361 -363 0
-361 -364 0
-361 -365 0
-361 -366 0
-361 -367 0
-361 -368 0
-361 -369 0
-361 -370 0
-362 -363 0
-362 -364 0
-362 -365 0
-362 -366 0
-362 -367 0
-362 -368 0
-362 -369 0
-362 -370 0
-363 -364 0
-363 -365 0
-363 -366 0
-363 -367 0
-363 -368 0
-363 -369 0
-363 -370 0
-364 -365 0
-364 -366 0
-364 -367 0
-364 -368 0
-364 -369 0
-364 -370 0
-365 -366 0
-365 -367 0
-365 -368 0
-365 -369 0
-365 -370 0
-366 -367 0
-366 -368 0
-366 -369 0
-366 -370 0
-367 -368 0
-367 -369 0
-367 -370 0
-368 -369 0
-368 -370 0
-369 -370 0
371 372 373 374 375 376 377 378 379 380 0
-371 -372 0
-371 -373 0
-371 -374 0
-371 -375 0
-371 -376 0
-371 -377 0
-371 -378 0
-371 -379 0
-371 -380 0
-372 -373 0
-372 -374 0
-372 -375 0
-372 -376 0
-372 -377 0
-372 -378 0
-372 -379 0
-372 -380 0
-373 -374 0
-373 -375 0
-373 -376 0
-373 -377 0
-373 -378 0
-373 -379 0
-373 -380 0
-374 -375 0
-374 -376 0
-374 -377 0
-374 -378 0
-374 -379 0
-374 -380 0
-375 -376 0
-375 -377 0
-375 -378 0
-375 -379 0
-375 -380 0
-376 -377 0
-376 -378 0
-376 -379 0
-376 -380 0
-377 -378 0
-377 -379 0
-377 -380 0
-378 -379 0
-378 -380 0
-379 -380 0
381 382 383 384 385 386 387 388 389 390 0
-381 -382 0
-381 -383 0
-381 -384 0
-381 -385 0
-381 -386 0
-381 -387 0
-381 -388 0
-381 -389 0
-381 -390 0
-382 -383 0
-382 -384 0
-382 -385 0
-382 -386 0
-382 -387 0
-382 -388 0
-382 -389 0
-382 -390 0
-383 -384 0
-383 -385 0
-383 -386 0
-383 -387 0
-383 -388 0
-383 -389 0
-383 -390 0
-384 -385 0
-384 -386 0
-384 -387 0
-384 -388 0
-384 -389 0
-384 -390 0
-385 -386 0
-385 -387 0
-385 -388 0
-385 -389 0
-385 -390 0
-386 -387 0
-386 -388 0
-386 -389 0
-386 -390 0
-387 -388 0
-387 -389 0
-387 -390 0
-388 -389 0
-388 -390 0
-389 -390 0
391 392 393 394 395 396 397 398 399 400 0
-391 -392 0
-391 -393 0
-391 -394 0
-391 -395 0
-391 -396 0
-391 -397 0
-391 -398 0
-391 -399 0
-391 -400 0
-392 -393 0
-392 -394 0
-392 -395 0
-392 -396 0
-392 -397 0
-392 -398 0
-392 -399 0
-392 -400 0
-393 -394 0
-393 -395 0
-393 -396 0
-393 -397 0
-393 -398 0
-393 -399 0
-393 -400 0
-394 -395 0
-394 -396 0
-394 -397 0
-394 -398 0
-394 -399 0
-394 -400 0
-395 -396 0
-395 -397 0
-395 -398 0
-395 -399 0
-395 -400 0
-396 -397 0
-396 -398 0
-396 -399 0
-396 -400 0
-397 -398 0
-397 -399 0
-397 -400 0
-398 -399 0
-398 -400 0
-399 -400 0
401 402 403 404 405 406 407 408 409 410 0
-401 -402 0
-401 -403 0
-401 -404 0
-401 -405 0
-401 -406 0
-401 -407 0
-401 -408 0
-401 -409 0
-401 -410 0
-402 -403 0
-402 -404 0
-402 -405 0
-402 -406 0
-402 -407 0
-402 -408 0
-402 -409 0
-402 -410 0
-403 -404 0
-403 -405 0
-403 -406 0
-403 -407 0
-403 -408 0
-403 -409 0
-403 -410 0
-404 -405 0
-404 -406 0
-404 -407 0
-404 -408 0
-404 -409 0
-404 -410 0
-405 -406 0
-405 -407 0
-405 -408 0
-405 -409 0
-405 -410 0
-406 -407 0
-406 -408 0
-406 -409 0
-406 -410 0
-407 -408 0
-407 -409 0
-407 -410 0
-408 -409 0
-408 -410 0
-409 -410 0
411 412 413 414 415 416 417 418 419 420 0
-411 -412 0
-411 -413 0
-411 -414 0
-411 -415 0
-411 -416 0
-411 -417 0
-411 -418 0
-411 -419 0
-411 -420 0
-412 -413 0
-412 -414 0
-412 -415 0
-412 -416 0
-412 -417 0
-412 -418 0
-412 -419 0
-412 -420 0
-413 -414 0
-413 -415 0
-413 -416 0
-413 -417 0
-413 -418 0
-413 -419 0
-413 -420 0
-414 -415 0
-414 -416 0
-414 -417 0
-414 -418 0
-414 -419 0
-414 -420 0
-415 -416 0
-415 -417 0
-415 -418 0
-415 -419 0
-415 -420 0
-416 -417 0
-416 -418 0
-416 -419 0
-416 -420 0
-417 -418 0
-417 -419 0
-417 -420 0
-418 -419 0
-418 -420 0
-419 -420 0
421 422 423 424 425 426 427 428 429 430 0
-421 -422 0
-421 -423 0
-421 -424 0
-421 -425 0
-421 -426 0
-421 -427 0
-421 -428 0
-421 -429 0
-421 -430 0
-422 -423 0
-422 -424 0
-422 -425 0
-422 -426 0
-422 -427 0
-422 -428 0
-422 -429 0
-422 -430 0
-423 -424 0
-423 -425 0
-423 -426 0
-423 -427 0
-423 -428 0
-423 -429 0
-423 -430 0
-424 -425 0
-424 -426 0
-424 -427 0
-424 -428 0
-424 -429 0
-424 -430 0
-425 -426 0
-425 -427 0
-425 -428 0
-425 -429 0
-425 -430 0
-426 -427 0
-426 -428 0
-426 -429 0
-426 -430 0
-427 -428 0
-427 -429 0
-427 -430 0
-428 -429 0
-428 -430 0
-429 -430 0
431 432 433 434 435 436 437 438 439 440 0
-431 -432 0
-431 -433 0
-431 -434 0
-431 -435 0
-431 -436 0
-431 -437 0
-431 -438 0
-431 -439 0
-431 -440 0
-432 -433 0
-432 -434 0
-432 -435 0
-432 -436 0
-432 -437 0
-432 -438 0
-432 -439 0
-432 -440 0
-433 -434 0
-433 -435 0
-433 -436 0
-433 -437 0
-433 -438 0
-433 -439 0
-433 -440 0
-434 -435 0
-434 -436 0
-434 -437 0
-434 -438 0
-434 -439 0
-434 -440 0
-435 -436 0
-435 -437 0
-435 -438 0
-435 -439 0
-435 -440 0
-436 -437 0
-436 -438 0
-436 -439 0
-436 -440 0
-437 -438 0
-437 -439 0
-437 -440 0
-438 -439 0
-438 -440 0
-439 -440 0
441 442 443 444 445 446 447 448 449 450 0
-441 -442 0
-441 -443 0
-441 -444 0
-441 -445 0
-441 -446 0
-441 -447 0
-441 -448 0
-441 -449 0
-441 -450 0
-442 -443 0
-442 -444 0
-442 -445 0
-442 -446 0
-442 -447 0
-442 -448 0
-442 -449 0
-442 -450 0
-443 -444 0
-443 -445 0
-443 -446 0
-443 -447 0
-443 -448 0
-443 -449 0
-443 -450 0
-444 -445 0
-444 -446 0
-444 -447 0
-444 -448 0
-444 -449 0
-444 -450 0
-445 -446 0
-445 -447 0
-445 -448 0
-445 -449 0
-445 -450 0
-446 -447 0
-446 -448 0
-446 -449 0
-446 -450 0
-447 -448 0
-447 -449 0
-447 -450 0
-448 -449 0
-448 -450 0
-449 -450 0
451 452 453 454 455 456 457 458 459 460 0
-451 -452 0
-451 -453 0
-451 -454 0
-451 -455 0
-451 -456 0
-451 -457 0
-451 -458 0
-451 -459 0
-451 -460 0
-452 -453 0
-452 -454 0
-452 -455 0
-452 -456 0
-452 -457 0
-452 -458 0
-452 -459 0
-452 -460 0
-453 -454 0
-453 -455 0
-453 -456 0
-453 -457 0
-453 -458 0
-453 -459 0
-453 -460 0
-454 -455 0
-454 -456 0
-454 -457 0
-454 -458 0
-454 -459 0
-454 -460 0
-455 -456 0
-455 -457 0
-455 -458 0
-455 -459 0
-455 -460 0
-456 -457 0
-456 -458 0
-456 -459 0
-456 -460 0
-457 -458 0
-457 -459 0
-457 -460 0
-458 -459 0
-458 -460 0
-459 -460 0
461 462 463 464 465 466 467 468 469 470 0
-461 -462 0
-461 -463 0
-461 -464 0
-461 -465 0
-461 -466 0
-461 -467 0
-461 -468 0
-461 -469 0
-461 -470 0
-462 -463 0
-462 -464 0
-462 -465 0
-462 -466 0
-462 -467 0
-462 -468 0
-462 -469 0
-462 -470 0
-463 -464 0
-463 -465 0
-463 -466 0
-463 -467 0
-463 -468 0
-463 -469 0
-463 -470 0
-464 -465 0
-464 -466 0
-464 -467 0
-464 -468 0
-464 -469 0
-464 -470 0
-465 -466 0
-465 -467 0
-465 -468 0
-465 -469 0
-465 -470 0
-466 -467 0
-466 -468 0
-466 -469 0
-466 -470 0
-467 -468 0
-467 -469 0
-467 -470 0
-468 -469 0
-468 -470 0
-469 -470 0
471 472 473 474 475 476 477 478 479 480 0
-471 -472 0
-471 -473 0
-471 -474 0
-471 -475 0
-471 -476 0
-471 -477 0
-471 -478 0
-471 -479 0
-471 -480 0
-472 -473 0
-472 -474 0
-472 -475 0
-472 -476 0
-472 -477 0
-472 -478 0
-472 -479 0
-472 -480 0
-473 -474 0
-473 -475 0
-473 -476 0
-473 -477 0
-473 -478 0
-473 -479 0
-473 -480 0
-474 -475 0
-474 -476 0
-474 -477 0
-474 -478 0
-474 -479 0
-474 -480 0
-475 -476 0
-475 -477 0
-475 -478 0
-475 -479 0
-475 -480 0
-476 -477 0
-476 -478 0
-476 -479 0
-476 -480 0
-477 -478 0
-477 -479 0
-477 -480 0
-478 -479 0
-478 -480 0
-479 -480 0
481 482 483 484 485 486 487 488 489 490 0
-481 -482 0
-481 -483 0
-481 -484 0
-481 -485 0
-481 -486 0
-481 -487 0
-481 -488 0
-481 -489 0
-481 -490 0
-482 -483 0
-482 -484 0
-482 -485 0
-482 -486 0
-482 -487 0
-482 -488 0
-482 -489 0
-482 -490 0
-483 -484 0
-483 -485 0
-483 -486 0
-483 -487 0
-483 -488 0
-483 -489 0
-483 -490 0
-484 -485 0
-484 -486 0
-484 -487 0
-484 -488 0
-484 -489 0
-484 -490 0
-485 -486 0
-485 -487 0
-485 -488 0
-485 -489 0
-485 -490 0
-486 -487 0
-486 -488 0
-486 -489 0
-486 -490 0
-487 -488 0
-487 -489 0
-487 -490 0
-488 -489 0
-488 -490 0
-489 -490 0
491 492 493 494 495 496 497 498 499 500 0
-491 -492 0
-491 -493 0
-491 -494 0
-491 -495 0
-491 -496 0
-491 -497 0
-491 -498 0
-491 -499 0
-491 -500 0
-492 -493 0
-492 -494 0
-492 -495 0
-492 -496 0
-492 -497 0
-492 -498 0
-492 -499 0
-492 -500 0
-493 -494 0
-493 -495 0
-493 -496 0
-493 -497 0
-493 -498 0
-493 -499 0
-493 -500 0
-494 -495 0
-494 -496 0
-494 -497 0
-494 -498 0
-494 -499 0
-494 -500 0
-495 -496 0
-495 -497 0
-495 -498 0
-495 -499 0
-495 -500 0
-496 -497 0
-496 -498 0
-496 -499 0
-496 -500 0
-497 -498 0
-497 -499 0
-497 -500 0
-498 -499 0
-498 -500 0
-499 -500 0
501 502 503 504 505 506 507 508 509 510 0
-501 -502 0
-501 -503 0
-501 -504 0
-501 -505 0
-501 -506 0
-501 -507 0
-501 -508 0
-501 -509 0
-501 -510 0
-502 -503 0
-502 -504 0
-502 -505 0
-502 -506 0
-502 -507 0
-502 -508 0
-502 -509 0
-502 -510 0
-503 -504 0
-503 -505 0
-503 -506 0
-503 -507 0
-503 -508 0
-503 -509 0
-503 -510 0
-504 -505 0
-504 -506 0
-504 -507 0
-504 -508 0
-504 -509 0
-504 -510 0
-505 -506 0
-505 -507 0
-505 -508 0
-505 -509 0
-505 -510 0
-506 -507 0
-506 -508 0
-506 -509 0
-506 -510 0
-507 -508 0
-507 -509 0
-507 -510 0
-508 -509 0
-508 -510 0
-509 -510 0
511 512 513 514 515 516 517 518 519 520 0
-511 -512 0
-511 -513 0
-511 -514 0
-511 -515 0
-511 -516 0
-511 -517 0
-511 -518 0
-511 -519 0
-511 -520 0
-512 -513 0
-512 -514 0
-512 -515 0
-512 -516 0
-512 -517 0
-512 -518 0
-512 -519 0
-512 -520 0
-513 -514 0
-513 -515 0
-513 -516 0
-513 -517 0
-513 -518 0
-513 -519 0
-513 -520 0
-514 -515 0
-514 -516 0
-514 -517 0
-514 -518 0
-514 -519 0
-514 -520 0
-515 -516 0
-515 -517 0
-515 -518 0
-515 -519 0
-515 -520 0
-516 -517 0
-516 -518 0
-516 -519 0
-516 -520 0
-517 -518 0
-517 -519 0
-517 -520 0
-518 -519 0
-518 -520 0
-519 -520 0
521 522 523 524 525 526 527 528 529 530 0
-521 -522 0
-521 -523 0
-521 -524 0
-521 -525 0
-521 -526 0
-521 -527 0
-521 -528 0
-521 -529 0
-521 -530 0
-522 -523 0
-522 -524 0
-522 -525 0
-522 -526 0
-522 -527 0
-522 -528 0
-522 -529 0
-522 -530 0
-523 -524 0
-523 -525 0
-523 -526 0
-523 -527 0
-523 -528 0
-523 -529 0
-523 -530 0
-524 -525 0
-524 -526 0
-524 -527 0
-524 -528 0
-524 -529 0
-524 -530 0
-525 -526 0
-525 -527 0
-525 -528 0
-525 -529 0
-525 -530 0
-526 -527 0
-526 -528 0
-526 -529 0
-526 -530 0
-527 -528 0
-527 -529 0
-527 -530 0
-528 -529 0
-528 -530 0
-529 -530 0
531 532 533 534 535 536 537 538 539 540 0
-531 -532 0
-531 -533 0
-531 -534 0
-531 -535 0
-531 -536 0
-531 -537 0
-531 -538 0
-531 -539 0
-531 -540 0
-532 -533 0
-532 -534 0
-532 -535 0
-532 -536 0
-532 -537 0
-532 -538 0
-532 -539 0
-532 -540 0
-533 -534 0
-533 -535 0
-533 -536 0
-533 -537 0
-533 -538 0
-533 -539 0
-533 -540 0
-534 -535 0
-534 -536 0
-534 -537 0
-534 -538 0
-534 -539 0
-534 -540 0
-535 -536 0
-535 -537 0
-535 -538 0
-535 -539 0
-535 -540 0
-536 -537 0
-536 -538 0
-536 -539 0
-536 -540 0
-537 -538 0
-537 -539 0
-537 -540 0
-538 -539 0
-538 -540 0
-539 -540 0
541 542 543 544 545 546 547 548 549 550 0
-541 -542 0
-541 -543 0
-541 -544 0
-541 -545 0
-541 -546 0
-541 -547 0
-541 -548 0
-541 -549 0
-541 -550 0
-542 -543 0
-542 -544 0
-542 -545 0
-542 -546 0
-542 -547 0
-542 -548 0
-542 -549 0
-542 -550 0
-543 -544 0
-543 -545 0
-543 -546 0
-543 -547 0
-543 -548 0
-543 -549 0
-543 -550 0
-544 -545 0
-544 -546 0
-544 -547 0
-544 -548 0
-544 -549 0
-544 -550 0
-545 -546 0
-545 -547 0
-545 -548 0
-545 -549 0
-545 -550 0
-546 -547 0
-546 -548 0
-546 -549 0
-546 -550 0
-547 -548 0
-547 -549 0
-547 -550 0
-548 -549 0
-548 -550 0
-549 -550 0
551 552 553 554 555 556 557 558 559 560 0
-551 -552 0
-551 -553 0
-551 -554 0
-551 -555 0
-551 -556 0
-551 -557 0
-551 -558 0
-551 -559 0
-551 -560 0
-552 -553 0
-552 -554 0
-552 -555 0
-552 -556 0
-552 -557 0
-552 -558 0
-552 -559 0
-552 -560 0
-553 -554 0
-553 -555 0
-553 -556 0
-553 -557 0
-553 -558 0
-553 -559 0
-553 -560 0
-554 -555 0
-554 -556 0
-554 -557 0
-554 -558 0
-554 -559 0
-554 -560 0
-555 -556 0
-555 -557 0
-555 -558 0
-555 -559 0
-555 -560 0
-556 -557 0
-556 -558 0
-556 -559 0
-556 -560 0
-557 -558 0
-557 -559 0
-557 -560 0
-558 -559 0
-558 -560 0
-559 -560 0
561 562 563 564 565 566 567 568 569 570 0
-561 -562 0
-561 -563 0
-561 -564 0
-561 -565 0
-561 -566 0
-561 -567 0
-561 -568 0
-561 -569 0
-561 -570 0
-562 -563 0
-562 -564 0
-562 -565 0
-562 -566 0
-562 -567 0
-562 -568 0
-562 -569 0
-562 -570 0
-563 -564 0
-563 -565 0
-563 -566 0
-563 -567 0
-563 -568 0
-563 -569 0
-563 -570 0
-564 -565 0
-564 -566 0
-564 -567 0
-564 -568 0
-564 -569 0
-564 -570 0
-565 -566 0
-565 -567 0
-565 -568 0
-565 -569 0
-565 -570 0
-566 -567 0
-566 -568 0
-566 -569 0
-566 -570 0
-567 -568 0
-567 -569 0
-567 -570 0
-568 -569 0
-568 -570 0
-569 -570 0
571 572 573 574 575 576 577 578 579 580 0
-571 -572 0
-571 -573 0
-571 -574 0
-571 -575 0
-571 -576 0
-571 -577 0
-571 -578 0
-571 -579 0
-571 -580 0
-572 -573 0
-572 -574 0
-572 -575 0
-572 -576 0
-572 -577 0
-572 -578 0
-572 -579 0
-572 -580 0
-573 -574 0
-573 -575 0
-573 -576 0
-573 -577 0
-573 -578 0
-573 -579 0
-573 -580 0
-574 -575 0
-574 -576 0
-574 -577 0
-574 -578 0
-574 -579 0
-574 -580 0
-575 -576 0
-575 -577 0
-575 -578 0
-575 -579 0
-575 -580 0
-576 -577 0
-576 -578 0
-576 -579 0
-576 -580 0
-577 -578 0
-577 -579 0
-577 -580 0
-578 -579 0
-578 -580 0
-579 -580 0
581 582 583 584 585 586 587 588 589 590 0
-581 -582 0
-581 -583 0
-581 -584 0
-581 -585 0
-581 -586 0
-581 -587 0
-581 -588 0
-581 -589 0
-581 -590 0
-582 -583 0
-582 -584 0
-582 -585 0
-582 -586 0
-582 -587 0
-582 -588 0
-582 -589 0
-582 -590 0
-583 -584 0
-583 -585 0
-583 -586 0
-583 -587 0
-583 -588 0
-583 -589 0
-583 -590 0
-584 -585 0
-584 -586 0
-584 -587 0
-584 -588 0
-584 -589 0
-584 -590 0
-585 -586 0
-585 -587 0
-585 -588 0
-585 -589 0
-585 -590 0
-586 -587 0
-586 -588 0
-586 -589 0
-586 -590 0
-587 -588 0
-587 -589 0
-587 -590 0
-588 -589 0
-588 -590 0
-589 -590 0
591 592 593 594 595 596 597 598 599 600 0
-591 -592 0
-591 -593 0
-591 -594 0
-591 -595 0
-591 -596 0
-591 -597 0
-591 -598 0
-591 -599 0
-591 -600 0
-592 -593 0
-592 -594 0
-592 -595 0
-592 -596 0
-592 -597 0
-592 -598 0
-592 -599 0
-592 -600 0
-593 -594 0
-593 -595 0
-593 -596 0
-593 -597 0
-593 -598 0
-593 -599 0
-593 -600 0
-594 -595 0
-594 -596 0
-594 -597 0
-594 -598 0
-594 -599 0
-594 -600 0
-595 -596 0
-595 -597 0
-595 -598 0
-595 -599 0
-595 -600 0
-596 -597 0
-596 -598 0
-596 -599 0
-596 -600 0
-597 -598 0
-597 -599 0
-597 -600 0
-598 -599 0
-598 -600 0
-599 -600 0
601 602 603 604 605 606 607 608 609 610 0
-601 -602 0
-601 -603 0
-601 -604 0
-601 -605 0
-601 -606 0
-601 -607 0
-601 -608 0
-601 -609 0
-601 -610 0
-602 -603 0
-602 -604 0
-602 -605 0
-602 -606 0
-602 -607 0
-602 -608 0
-602 -609 0
-602 -610 0
-603 -604 0
-603 -605 0
-603 -606 0
-603 -607 0
-603 -608 0
-603 -609 0
-603 -610 0
-604 -605 0
-604 -606 0
-604 -607 0
-604 -608 0
-604 -609 0
-604 -610 0
-605 -606 0
-605 -607 0
-605 -608 0
-605 -609 0
-605 -610 0
-606 -607 0
-606 -608 0
-606 -609 0
-606 -610 0
-607 -608 0
-607 -609 0
-607 -610 0
-608 -609 0
-608 -610 0
-609 -610 0
611 612 613 614 615 616 617 618 619 620 0
-611 -612 0
-611 -613 0
-611 -614 0
-611 -615 0
-611 -616 0
-611 -617 0
-611 -618 0
-611 -619 0
-611 -620 0
-612 -613 0
-612 -614 0
-612 -615 0
-612 -616 0
-612 -617 0
-612 -618 0
-612 -619 0
-612 -620 0
-613 -614 0
-613 -615 0
-613 -616 0
-613 -617 0
-613 -618 0
-613 -619 0
-613 -620 0
-614 -615 0
-614 -616 0
-614 -617 0
-614 -618 0
-614 -619 0
-614 -620 0
-615 -616 0
-615 -617 0
-615 -618 0
-615 -619 0
-615 -620 0
-616 -617 0
-616 -618 0
-616 -619 0
-616 -620 0
-617 -618 0
-617 -619 0
-617 -620 0
-618 -619 0
-618 -620 0
-619 -620 0
621 622 623 624 625 626 627 628 629 630 0
-621 -622 0
-621 -623 0
-621 -624 0
-621 -625 0
-621 -626 0
-621 -627 0
-621 -628 0
-621 -629 0
-621 -630 0
-622 -623 0
-622 -624 0
-622 -625 0
-622 -626 0
-622 -627 0
-622 -628 0
-622 -629 0
-622 -630 0
-623 -624 0
-623 -625 0
-623 -626 0
-623 -627 0
-623 -628 0
-623 -629 0
-623 -630 0
-624 -625 0
-624 -626 0
-624 -627 0
-624 -628 0
-624 -629 0
-624 -630 0
-625 -626 0
-625 -627 0
-625 -628 0
-625 -629 0
-625 -630 0
-626 -627 0
-626 -628 0
-626 -629 0
-626 -630 0
-627 -628 0
-627 -629 0
-627 -630 0
-628 -629 0
-628 -630 0
-629 -630 0
631 632 633 634 635 636 637 638 639 640 0
-631 -632 0
-631 -633 0
-631 -634 0
-631 -635 0
-631 -636 0
-631 -637 0
-631 -638 0
-631 -639 0
-631 -640 0
-632 -633 0
-632 -634 0
-632 -635 0
-632 -636 0
-632 -637 0
-632 -638 0
-632 -639 0
-632 -640 0
-633 -634 0
-633 -635 0
-633 -636 0
-633 -637 0
-633 -638 0
-633 -639 0
-633 -640 0
-634 -635 0
-634 -636 0
-634 -637 0
-634 -638 0
-634 -639 0
-634 -640 0
-635 -636 0
-635 -637 0
-635 -638 0
-635 -639 0
-635 -640 0
-636 -637 0
-636 -638 0
-636 -639 0
-636 -640 0
-637 -638 0
-637 -639 0
-637 -640 0
-638 -639 0
-638 -640 0
-639 -640 0
-1 -11 0
-1 -13 0
-1 -14 0
-1 -16 0
-1 -17 0
-1 -18 0
-1 -19 0
-1 -20 0
-1 -81 0
-1 -83 0
-1 -84 0
-1 -86 0
-1 -87 0
-1 -88 0
-1 -89 0
-1 -90 0
-2 -11 0
-2 -12 0
-2 -14 0
-2 -15 0
-2 -16 0
-2 -17 0
-2 -18 0
-2 -19 0
-2 -20 0
-2 -81 0
-2 -82 0
-2 -83 0
-2 -84 0
-2 -85 0
-2 -87 0
-2 -88 0
-2 -89 0
-2 -90 0
-3 -11 0
-3 -12 0
-3 -13 0
-3 -15 0
-3 -16 0
-3 -17 0
-3 -18 0
-3 -19 0
-3 -20 0
-3 -81 0
-3 -82 0
-3 -83 0
-3 -84 0
-3 -85 0
-3 -86 0
-3 -88 0
-3 -89 0
-3 -90 0
-4 -12 0
-4 -13 0
-4 -14 0
-4 -15 0
-4 -16 0
-4 -17 0
-4 -18 0
-4 -19 0
-4 -20 0
-4 -81 0
-4 -82 0
-4 -83 0
-4 -84 0
-4 -85 0
-4 -86 0
-4 -87 0
-4 -89 0
-4 -90 0
-5 -11 0
-5 -12 0
-5 -13 0
-5 -14 0
-5 -15 0
-5 -17 0
-5 -18 0
-5 -20 0
-5 -81 0
-5 -82 0
-5 -84 0
-5 -85 0
-5 -86 0
-5 -87 0
-5 -88 0
-5 -90 0
-6 -11 0
-6 -12 0
-6 -13 0
-6 -14 0
-6 -15 0
-6 -16 0
-6 -18 0
-6 -19 0
-6 -20 0
-6 -81 0
-6 -82 0
-6 -83 0
-6 -85 0
-6 -86 0
-6 -87 0
-6 -88 0
-6 -89 0
-7 -11 0
-7 -12 0
-7 -13 0
-7 -14 0
-7 -15 0
-7 -16 0
-7 -17 0
-7 -19 0
-7 -20 0
-7 -82 0
-7 -83 0
-7 -84 0
-7 -85 0
-7 -86 0
-7 -87 0
-7 -88 0
-7 -89 0
-7 -90 0
-8 -11 0
-8 -13 0
-8 -14 0
-8 -16 0
-8 -17 0
-8 -18 0
-8 -19 0
-8 -20 0
-8 -81 0
-8 -83 0
-8 -84 0
-8 -86 0
-8 -87 0
-8 -88 0
-8 -89 0
-8 -90 0
-9 -11 0
-9 -12 0
-9 -13 0
-9 -14 0
-9 -15 0
-9 -16 0
-9 -17 0
-9 -18 0
-9 -19 0
-9 -81 0
-9 -82 0
-9 -83 0
-9 -85 0
-9 -86 0
-9 -87 0
-9 -88 0
-9 -89 0
-10 -12 0
-10 -13 0
-10 -14 0
-10 -15 0
-10 -16 0
-10 -17 0
-10 -18 0
-10 -19 0
-10 -20 0
-10 -82 0
-10 -83 0
-10 -84 0
-10 -85 0
-10 -86 0
-10 -87 0
-10 -88 0
-10 -89 0
-10 -90 0
-11 -21 0
-11 -23 0
-11 -24 0
-11 -26 0
-11 -27 0
-11 -28 0
-11 -29 0
-11 -30 0
-11 -91 0
-11 -93 0
-11 -94 0
-11 -96 0
-11 -97 0
-11 -98 0
-11 -99 0
-11 -100 0
-12 -21 0
-12 -22 0
-12 -24 0
-12 -25 0
-12 -26 0
-12 -27 0
-12 -28 0
-12 -29 0
-12 -30 0
-12 -91 0
-12 -92 0
-12 -93 0
-12 -94 0
-12 -95 0
-12 -97 0
-12 -98 0
-12 -99 0
-12 -100 0
-13 -21 0
-13 -22 0
-13 -23 0
-13 -25 0
-13 -26 0
-13 -27 0
-13 -28 0
-13 -29 0
-13 -30 0
-13 -91 0
-13 -92 0
-13 -93 0
-13 -94 0
-13 -95 0
-13 -96 0
-13 -98 0
-13 -99 0
-13 -100 0
-14 -22 0
-14 -23 0
-14 -24 0
-14 -25 0
-14 -26 0
-14 -27 0
-14 -28 0
-14 -29 0
-14 -30 0
-14 -91 0
-14 -92 0
-14 -93 0
-14 -94 0
-14 -95 0
-14 -96 0
-14 -97 0
-14 -99 0
-14 -100 0
-15 -21 0
-15 -22 0
-15 -23 0
-15 -24 0
-15 -25 0
-15 -27 0
-15 -28 0
-15 -30 0
-15 -91 0
-15 -92 0
-15 -94 0
-15 -95 0
-15 -96 0
-15 -97 0
-15 -98 0
-15 -100 0
-16 -21 0
-16 -22 0
-16 -23 0
-16 -24 0
-16 -25 0
-16 -26 0
-16 -28 0
-16 -29 0
-16 -30 0
-16 -91 0
-16 -92 0
-16 -93 0
-16 -95 0
-16 -96 0
-16 -97 0
-16 -98 0
-16 -99 0
-17 -21 0
-17 -22 0
-17 -23 0
-17 -24 0
-17 -25 0
-17 -26 0
-17 -27 0
-17 -29 0
-17 -30 0
-17 -92 0
-17 -93 0
-17 -94 0
-17 -95 0
-17 -96 0
-17 -97 0
-17 -98 0
-17 -99 0
-17 -100 0
-18 -21 0
-18 -23 0
-18 -24 0
-18 -26 0
-18 -27 0
-18 -28 0
-18 -29 0
-18 -30 0
-18 -91 0
-18 -93 0
-18 -94 0
-18 -96 0
-18 -97 0
-18 -98 0
-18 -99 0
-18 -100 0
-19 -21 0
-19 -22 0
-19 -23 0
-19 -24 0
-19 -25 0
-19 -26 0
-19 -27 0
-19 -28 0
-19 -29 0
-19 -91 0
-19 -92 0
-19 -93 0
-19 -95 0
-19 -96 0
-19 -97 0
-19 -98 0
-19 -99 0
-20 -22 0
-20 -23 0
-20 -24 0
-20 -25 0
-20 -26 0
-20 -27 0
-20 -28 0
-20 -29 0
-20 -30 0
-20 -92 0
-20 -93 0
-20 -94 0
-20 -95 0
-20 -96 0
-20 -97 0
-20 -98 0
-20 -99 0
-20 -100 0
-21 -31 0
-21 -33 0
-21 -34 0
-21 -36 0
-21 -37 0
-21 -38 0
-21 -39 0
-21 -40 0
-21 -101 0
-21 -103 0
-21 -104 0
-21 -106 0
-21 -107 0
-21 -108 0
-21 -109 0
-21 -110 0
-22 -31 0
-22 -32 0
-22 -34 0
-22 -35 0
-22 -36 0
-22 -37 0
-22 -38 0
-22 -39 0
-22 -40 0
-22 -101 0
-22 -102 0
-22 -103 0
-22 -104 0
-22 -105 0
-22 -107 0
-22 -108 0
-22 -109 0
-22 -110 0
-23 -31 0
-23 -32 0
-23 -33 0
-23 -35 0
-23 -36 0
-23 -37 0
-23 -38 0
-23 -39 0
-23 -40 0
-23 -101 0
-23 -102 0
-23 -103 0
-23 -104 0
-23 -105 0
-23 -106 0
-23 -108 0
-23 -109 0
-23 -110 0
-24 -32 0
-24 -33 0
-24 -34 0
-24 -35 0
-24 -36 0
-24 -37 0
-24 -38 0
-24 -39 0
-24 -40 0
-24 -101 0
-24 -102 0
-24 -103 0
-24 -104 0
-24 -105 0
-24 -106 0
-24 -107 0
-24 -109 0
-24 -110 0
-25 -31 0
-25 -32 0
-25 -33 0
-25 -34 0
-25 -35 0
-25 -37 0
-25 -38 0
-25 -40 0
-25 -101 0
-25 -102 0
-25 -104 0
-25 -105 0
-25 -106 0
-25 -107 0
-25 -108 0
-25 -110 0
-26 -31 0
-26 -32 0
-26 -33 0
-26 -34 0
-26 -35 0
-26 -36 0
-26 -38 0
-26 -39 0
-26 -40 0
-26 -101 0
-26 -102 0
-26 -103 0
-26 -105 0
-26 -106 0
-26 -107 0
-26 -108 0
-26 -109 0
-27 -31 0
-27 -32 0
-27 -33 0
-27 -34 0
-27 -35 0
-27 -36 0
-27 -37 0
-27 -39 0
-27 -40 0
-27 -102 0
-27 -103 0
-27 -104 0
-27 -105 0
-27 -106 0
-27 -107 0
-27 -108 0
-27 -109 0
-27 -110 0
-28 -31 0
-28 -33 0
-28 -34 0
-28 -36 0
-28 -37 0
-28 -38 0
-28 -39 0
-28 -40 0
-28 -101 0
-28 -103 0
-28 -104 0
-28 -106 0
-28 -107 0
-28 -108 0
-28 -109 0
-28 -110 0
-29 -31 0
-29 -32 0
-29 -33 0
-29 -34 0
-29 -35 0
-29 -36 0
-29 -37 0
-29 -38 0
-29 -39 0
-29 -101 0
-29 -102 0
-29 -103 0
-29 -105 0
-29 -106 0
-29 -107 0
-29 -108 0
-29 -109 0
-30 -32 0
-30 -33 0
-30 -34 0
-30 -35 0
-30 -36 0
-30 -37 0
-30 -38 0
-30 -39 0
-30 -40 0
-30 -102 0
-30 -103 0
-30 -104 0
-30 -105 0
-30 -106 0
-30 -107 0
-30 -108 0
-30 -109 0
-30 -110 0
-31 -41 0
-31 -43 0
-31 -44 0
-31 -46 0
-31 -47 0
-31 -48 0
-31 -49 0
-31 -50 0
-31 -111 0
-31 -113 0
-31 -114 0
-31 -116 0
-31 -117 0
-31 -118 0
-31 -119 0
-31 -120 0
-32 -41 0
-32 -42 0
-32 -44 0
-32 -45 0
-32 -46 0
-32 -47 0
-32 -48 0
-32 -49 0
-32 -50 0
-32 -111 0
-32 -112 0
-32 -113 0
-32 -114 0
-32 -115 0
-32 -117 0
-32 -118 0
-32 -119 0
-32 -120 0
-33 -41 0
-33 -42 0
-33 -43 0
-33 -45 0
-33 -46 0
-33 -47 0
-33 -48 0
-33 -49 0
-33 -50 0
-33 -111 0
-33 -112 0
-33 -113 0
-33 -114 0
-33 -115 0
-33 -116 0
-33 -118 0
-33 -119 0
-33 -120 0
-34 -42 0
-34 -43 0
-34 -44 0
-34 -45 0
-34 -46 0
-34 -47 0
-34 -48 0
-34 -49 0
-34 -50 0
-34 -111 0
-34 -112 0
-34 -113 0
-34 -114 0
-34 -115 0
-34 -116 0
-34 -117 0
-34 -119 0
-34 -120 0
-35 -41 0
-35 -42 0
-35 -43 0
-35 -44 0
-35 -45 0
-35 -47 0
-35 -48 0
-35 -50 0
-35 -111 0
-35 -112 0
-35 -114 0
-35 -115 0
-35 -116 0
-35 -117 0
-35 -118 0
-35 -120 0
-36 -41 0
-36 -42 0
-36 -43 0
-36 -44 0
-36 -45 0
-36 -46 0
-36 -48 0
-36 -49 0
-36 -50 0
-36 -111 0
-36 -112 0
-36 -113 0
-36 -115 0
-36 -116 0
-36 -117 0
-36 -118 0
-36 -119 0
-37 -41 0
-37 -42 0
-37 -43 0
-37 -44 0
-37 -45 0
-37 -46 0
-37 -47 0
-37 -49 0
-37 -50 0
-37 -112 0
-37 -113 0
-37 -114 0
-37 -115 0
-37 -116 0
-37 -117 0
-37 -118 0
-37 -119 0
-37 -120 0
-38 -41 0
-38 -43 0
-38 -44 0
-38 -46 0
-38 -47 0
-38 -48 0
-38 -49 0
-38 -50 0
-38 -111 0
-38 -113 0
-38 -114 0
-38 -116 0
-38 -117 0
-38 -118 0
-38 -119 0
-38 -120 0
-39 -41 0
-39 -42 0
-39 -43 0
-39 -44 0
-39 -45 0
-39 -46 0
-39 -47 0
-39 -48 0
-39 -49 0
-39 -111 0
-39 -112 0
-39 -113 0
-39 -115 0
-39 -116 0
-39 -117 0
-39 -118 0
-39 -119 0
-40 -42 0
-40 -43 0
-40 -44 0
-40 -45 0
-40 -46 0
-40 -47 0
-40 -48 0
-40 -49 0
-40 -50 0
-40 -112 0
-40 -113 0
-40 -114 0
-40 -115 0
-40 -116 0
-40 -117 0
-40 -118 0
-40 -119 0
-40 -120 0
-41 -51 0
-41 -53 0
-41 -54 0
-41 -56 0
-41 -57 0
-41 -58 0
-41 -59 0
-41 -60 0
-41 -121 0
-41 -123 0
-41 -124 0
-41 -126 0
-41 -127 0
-41 -128 0
-41 -129 0
-41 -130 0
-42 -51 0
-42 -52 0
-42 -54 0
-42 -55 0
-42 -56 0
-42 -57 0
-42 -58 0
-42 -59 0
-42 -60 0
-42 -121 0
-42 -122 0
-42 -123 0
-42 -124 0
-42 -125 0
-42 -127 0
-42 -128 0
-42 -129 0
-42 -130 0
-43 -51 0
-43 -52 0
-43 -53 0
-43 -55 0
-43 -56 0
-43 -57 0
-43 -58 0
-43 -59 0
-43 -60 0
-43 -121 0
-43 -122 0
-43 -123 0
-43 -124 0
-43 -125 0
-43 -126 0
-43 -128 0
-43 -129 0
-43 -130 0
-44 -52 0
-44 -53 0
-44 -54 0
-44 -55 0
-44 -56 0
-44 -57 0
-44 -58 0
-44 -59 0
-44 -60 0
-44 -121 0
-44 -122 0
-44 -123 0
-44 -124 0
-44 -125 0
-44 -126 0
-44 -127 0
-44 -129 0
-44 -130 0
-45 -51 0
-45 -52 0
-45 -53 0
-45 -54 0
-45 -55 0
-45 -57 0
-45 -58 0
-45 -60 0
-45 -121 0
-45 -122 0
-45 -124 0
-45 -125 0
-45 -126 0
-45 -127 0
-45 -128 0
-45 -130 0
-46 -51 0
-46 -52 0
-46 -53 0
-46 -54 0
-46 -55 0
-46 -56 0
-46 -58 0
-46 -59 0
-46 -60 0
-46 -121 0
-46 -122 0
-46 -123 0
-46 -125 0
-46 -126 0
-46 -127 0
-46 -128 0
-46 -129 0
-47 -51 0
-47 -52 0
-47 -53 0
-47 -54 0
-47 -55 0
-47 -56 0
-47 -57 0
-47 -59 0
-47 -60 0
-47 -122 0
-47 -123 0
-47 -124 0
-47 -125 0
-47 -126 0
-47 -127 0
-47 -128 0
-47 -129 0
-47 -130 0
-48 -51 0
-48 -53 0
-48 -54 0
-48 -56 0
-48 -57 0
-48 -58 0
-48 -59 0
-48 -60 0
-48 -121 0
-48 -123 0
-48 -124 0
-48 -126 0
-48 -127 0
-48 -128 0
-48 -129 0
-48 -130 0
-49 -51 0
-49 -52 0
-49 -53 0
-49 -54 0
-49 -55 0
-49 -56 0
-49 -57 0
-49 -58 0
-49 -59 0
-49 -121 0
-49 -122 0
-49 -123 0
-49 -125 0
-49 -126 0
-49 -127 0
-49 -128 0
-49 -129 0
-50 -52 0
-50 -53 0
-50 -54 0
-50 -55 0
-50 -56 0
-50 -57 0
-50 -58 0
-50 -59 0
-50 -60 0
-50 -122 0
-50 -123 0
-50 -124 0
-50 -125 0
-50 -126 0
-50 -127 0
-50 -128 0
-50 -129 0
-50 -130 0
-51 -61 0
-51 -63 0
-51 -64 0
-51 -66 0
-51 -67 0
-51 -68 0
-51 -69 0
-51 -70 0
-51 -131 0
-51 -133 0
-51 -134 0
-51 -136 0
-51 -137 0
-51 -138 0
-51 -139 0
-51 -140 0
-52 -61 0
-52 -62 0
-52 -64 0
-52 -65 0
-52 -66 0
-52 -67 0
-52 -68 0
-52 -69 0
-52 -70 0
-52 -131 0
-52 -132 0
-52 -133 0
-52 -134 0
-52 -135 0
-52 -137 0
-52 -138 0
-52 -139 0
-52 -140 0
-53 -61 0
-53 -62 0
-53 -63 0
-53 -65 0
-53 -66 0
-53 -67 0
-53 -68 0
-53 -69 0
-53 -70 0
-53 -131 0
-53 -132 0
-53 -133 0
-53 -134 0
-53 -135 0
-53 -136 0
-53 -138 0
-53 -139 0
-53 -140 0
-54 -62 0
-54 -63 0
-54 -64 0
-54 -65 0
-54 -66 0
-54 -67 0
-54 -68 0
-54 -69 0
-54 -70 0
-54 -131 0
-54 -132 0
-54 -133 0
-54 -134 0
-54 -135 0
-54 -136 0
-54 -137 0
-54 -139 0
-54 -140 0
-55 -61 0
-55 -62 0
-55 -63 0
-55 -64 0
-55 -65 0
-55 -67 0
-55 -68 0
-55 -70 0
-55 -131 0
-55 -132 0
-55 -134 0
-55 -135 0
-55 -136 0
-55 -137 0
-55 -138 0
-55 -140 0
-56 -61 0
-56 -62 0
-56 -63 0
-56 -64 0
-56 -65 0
-56 -66 0
-56 -68 0
-56 -69 0
-56 -70 0
-56 -131 0
-56 -132 0
-56 -133 0
-56 -135 0
-56 -136 0
-56 -137 0
-56 -138 0
-56 -139 0
-57 -61 0
-57 -62 0
-57 -63 0
-57 -64 0
-57 -65 0
-57 -66 0
-57 -67 0
-57 -69 0
-57 -70 0
-57 -132 0
-57 -133 0
-57 -134 0
-57 -135 0
-57 -136 0
-57 -137 0
-57 -138 0
-57 -139 0
-57 -140 0
-58 -61 0
-58 -63 0
-58 -64 0
-58 -66 0
-58 -67 0
-58 -68 0
-58 -69 0
-58 -70 0
-58 -131 0
-58 -133 0
-58 -134 0
-58 -136 0
-58 -137 0
-58 -138 0
-58 -139 0
-58 -140 0
-59 -61 0
-59 -62 0
-59 -63 0
-59 -64 0
-59 -65 0
-59 -66 0
-59 -67 0
-59 -68 0
-59 -69 0
-59 -131 0
-59 -132 0
-59 -133 0
-59 -135 0
-59 -136 0
-59 -137 0
-59 -138 0
-59 -139 0
-60 -62 0
-60 -63 0
-60 -64 0
-60 -65 0
-60 -66 0
-60 -67 0
-60 -68 0
-60 -69 0
-60 -70 0
-60 -132 0
-60 -133 0
-60 -134 0
-60 -135 0
-60 -136 0
-60 -137 0
-60 -138 0
-60 -139 0
-60 -140 0
-61 -71 0
-61 -73 0
-61 -74 0
-61 -76 0
-61 -77 0
-61 -78 0
-61 -79 0
-61 -80 0
-61 -141 0
-61 -143 0
-61 -144 0
-61 -146 0
-61 -147 0
-61 -148 0
-61 -149 0
-61 -150 0
-62 -71 0
-62 -72 0
-62 -74 0
-62 -75 0
-62 -76 0
-62 -77 0
-62 -78 0
-62 -79 0
-62 -80 0
-62 -141 0
-62 -142 0
-62 -143 0
-62 -144 0
-62 -145 0
-62 -147 0
-62 -148 0
-62 -149 0
-62 -150 0
-63 -71 0
-63 -72 0
-63 -73 0
-63 -75 0
-63 -76 0
-63 -77 0
-63 -78 0
-63 -79 0
-63 -80 0
-63 -141 0
-63 -142 0
-63 -143 0
-63 -144 0
-63 -145 0
-63 -146 0
-63 -148 0
-63 -149 0
-63 -150 0
-64 -72 0
-64 -73 0
-64 -74 0
-64 -75 0
-64 -76 0
-64 -77 0
-64 -78 0
-64 -79 0
-64 -80 0
-64 -141 0
-64 -142 0
-64 -143 0
-64 -144 0
-64 -145 0
-64 -146 0
-64 -147 0
-64 -149 0
-64 -150 0
-65 -71 0
-65 -72 0
-65 -73 0
-65 -74 0
-65 -75 0
-65 -77 0
-65 -78 0
-65 -80 0
-65 -141 0
-65 -142 0
-65 -144 0
-65 -145 0
-65 -146 0
-65 -147 0
-65 -148 0
-65 -150 0
-66 -71 0
-66 -72 0
-66 -73 0
-66 -74 0
-66 -75 0
-66 -76 0
-66 -78 0
-66 -79 0
-66 -80 0
-66 -141 0
-66 -142 0
-66 -143 0
-66 -145 0
-66 -146 0
-66 -147 0
-66 -148 0
-66 -149 0
-67 -71 0
-67 -72 0
-67 -73 0
-67 -74 0
-67 -75 0
-67 -76 0
-67 -77 0
-67 -79 0
-67 -80 0
-67 -142 0
-67 -143 0
-67 -144 0
-67 -145 0
-67 -146 0
-67 -147 0
-67 -148 0
-67 -149 0
-67 -150 0
-68 -71 0
-68 -73 0
-68 -74 0
-68 -76 0
-68 -77 0
-68 -78 0
-68 -79 0
-68 -80 0
-68 -141 0
-68 -143 0
-68 -144 0
-68 -146 0
-68 -147 0
-68 -148 0
-68 -149 0
-68 -150 0
-69 -71 0
-69 -72 0
-69 -73 0
-69 -74 0
-69 -75 0
-69 -76 0
-69 -77 0
-69 -78 0
-69 -79 0
-69 -141 0
-69 -142 0
-69 -143 0
-69 -145 0
-69 -146 0
-69 -147 0
-69 -148 0
-69 -149 0
-70 -72 0
-70 -73 0
-70 -74 0
-70 -75 0
-70 -76 0
-70 -77 0
-70 -78 0
-70 -79 0
-70 -80 0
-70 -142 0
-70 -143 0
-70 -144 0
-70 -145 0
-70 -146 0
-70 -147 0
-70 -148 0
-70 -149 0
-70 -150 0
-71 -151 0
-71 -153 0
-71 -154 0
-71 -156 0
-71 -157 0
-71 -158 0
-71 -159 0
-71 -160 0
-72 -151 0
-72 -152 0
-72 -153 0
-72 -154 0
-72 -155 0
-72 -157 0
-72 -158 0
-72 -159 0
-72 -160 0
-73 -151 0
-73 -152 0
-73 -153 0
-73 -154 0
-73 -155 0
-73 -156 0
-73 -158 0
-73 -159 0
-73 -160 0
-74 -151 0
-74 -152 0
-74 -153 0
-74 -154 0
-74 -155 0
-74 -156 0
-74 -157 0
-74 -159 0
-74 -160 0
-75 -151 0
-75 -152 0
-75 -154 0
-75 -155 0
-75 -156 0
-75 -157 0
-75 -158 0
-75 -160 0
-76 -151 0
-76 -152 0
-76 -153 0
-76 -155 0
-76 -156 0
-76 -157 0
-76 -158 0
-76 -159 0
-77 -152 0
-77 -153 0
-77 -154 0
-77 -155 0
-77 -156 0
-77 -157 0
-77 -158 0
-77 -159 0
-77 -160 0
-78 -151 0
-78 -153 0
-78 -154 0
-78 -156 0
-78 -157 0
-78 -158 0
-78 -159 0
-78 -160 0
-79 -151 0
-79 -152 0
-79 -153 0
-79 -155 0
-79 -156 0
-79 -157 0
-79 -158 0
-79 -159 0
-80 -152 0
-80 -153 0
-80 -154 0
-80 -155 0
-80 -156 0
-80 -157 0
-80 -158 0
-80 -159 0
-80 -160 0
-81 -91 0
-81 -93 0
-81 -94 0
-81 -96 0
-81 -97 0
-81 -98 0
-81 -99 0
-81 -100 0
-81 -161 0
-81 -163 0
-81 -164 0
-81 -166 0
-81 -167 0
-81 -168 0
-81 -169 0
-81 -170 0
-82 -91 0
-82 -92 0
-82 -94 0
-82 -95 0
-82 -96 0
-82 -97 0
-82 -98 0
-82 -99 0
-82 -100 0
-82 -161 0
-82 -162 0
-82 -163 0
-82 -164 0
-82 -165 0
-82 -167 0
-82 -168 0
-82 -169 0
-82 -170 0
-83 -91 0
-83 -92 0
-83 -93 0
-83 -95 0
-83 -96 0
-83 -97 0
-83 -98 0
-83 -99 0
-83 -100 0
-83 -161 0
-83 -162 0
-83 -163 0
-83 -164 0
-83 -165 0
-83 -166 0
-83 -168 0
-83 -169 0
-83 -170 0
-84 -92 0
-84 -93 0
-84 -94 0
-84 -95 0
-84 -96 0
-84 -97 0
-84 -98 0
-84 -99 0
-84 -100 0
-84 -161 0
-84 -162 0
-84 -163 0
-84 -164 0
-84 -165 0
-84 -166 0
-84 -167 0
-84 -169 0
-84 -170 0
-85 -91 0
-85 -92 0
-85 -93 0
-85 -94 0
-85 -95 0
-85 -97 0
-85 -98 0
-85 -100 0
-85 -161 0
-85 -162 0
-85 -164 0
-85 -165 0
-85 -166 0
-85 -167 0
-85 -168 0
-85 -170 0
-86 -91 0
-86 -92 0
-86 -93 0
-86 -94 0
-86 -95 0
-86 -96 0
-86 -98 0
-86 -99 0
-86 -100 0
-86 -161 0
-86 -162 0
-86 -163 0
-86 -165 0
-86 -166 0
-86 -167 0
-86 -168 0
-86 -169 0
-87 -91 0
-87 -92 0
-87 -93 0
-87 -94 0
-87 -95 0
-87 -96 0
-87 -97 0
-87 -99 0
-87 -100 0
-87 -162 0
-87 -163 0
-87 -164 0
-87 -165 0
-87 -166 0
-87 -167 0
-87 -168 0
-87 -169 0
-87 -170 0
-88 -91 0
-88 -93 0
-88 -94 0
-88 -96 0
-88 -97 0
-88 -98 0
-88 -99 0
-88 -100 0
-88 -161 0
-88 -163 0
-88 -164 0
-88 -166 0
-88 -167 0
-88 -168 0
-88 -169 0
-88 -170 0
-89 -91 0
-89 -92 0
-89 -93 0
-89 -94 0
-89 -95 0
-89 -96 0
-89 -97 0
-89 -98 0
-89 -99 0
-89 -161 0
-89 -162 0
-89 -163 0
-89 -165 0
-89 -166 0
-89 -167 0
-89 -168 0
-89 -169 0
-90 -92 0
-90 -93 0
-90 -94 0
-90 -95 0
-90 -96 0
-90 -97 0
-90 -98 0
-90 -99 0
-90 -100 0
-90 -162 0
-90 -163 0
-90 -164 0
-90 -165 0
-90 -166 0
-90 -167 0
-90 -168 0
-90 -169 0
-90 -170 0
-91 -101 0
-91 -103 0
-91 -104 0
-91 -106 0
-91 -107 0
-91 -108 0
-91 -109 0
-91 -110 0
-91 -171 0
-91 -173 0
-91 -174 0
-91 -176 0
-91 -177 0
-91 -178 0
-91 -179 0
-91 -180 0
-92 -101 0
-92 -102 0
-92 -104 0
-92 -105 0
-92 -106 0
-92 -107 0
-92 -108 0
-92 -109 0
-92 -110 0
-92 -171 0
-92 -172 0
-92 -173 0
-92 -174 0
-92 -175 0
-92 -177 0
-92 -178 0
-92 -179 0
-92 -180 0
-93 -101 0
-93 -102 0
-93 -103 0
-93 -105 0
-93 -106 0
-93 -107 0
-93 -108 0
-93 -109 0
-93 -110 0
-93 -171 0
-93 -172 0
-93 -173 0
-93 -174 0
-93 -175 0
-93 -176 0
-93 -178 0
-93 -179 0
-93 -180 0
-94 -102 0
-94 -103 0
-94 -104 0
-94 -105 0
-94 -106 0
-94 -107 0
-94 -108 0
-94 -109 0
-94 -110 0
-94 -171 0
-94 -172 0
-94 -173 0
-94 -174 0
-94 -175 0
-94 -176 0
-94 -177 0
-94 -179 0
-94 -180 0
-95 -101 0
-95 -102 0
-95 -103 0
-95 -104 0
-95 -105 0
-95 -107 0
-95 -108 0
-95 -110 0
-95 -171 0
-95 -172 0
-95 -174 0
-95 -175 0
-95 -176 0
-95 -177 0
-95 -178 0
-95 -180 0
-96 -101 0
-96 -102 0
-96 -103 0
-96 -104 0
-96 -105 0
-96 -106 0
-96 -108 0
-96 -109 0
-96 -110 0
-96 -171 0
-96 -172 0
-96 -173 0
-96 -175 0
-96 -176 0
-96 -177 0
-96 -178 0
-96 -179 0
-97 -101 0
-97 -102 0
-97 -103 0
-97 -104 0
-97 -105 0
-97 -106 0
-97 -107 0
-97 -109 0
-97 -110 0
-97 -172 0
-97 -173 0
-97 -174 0
-97 -175 0
-97 -176 0
-97 -177 0
-97 -178 0
-97 -179 0
-97 -180 0
-98 -101 0
-98 -103 0
-98 -104 0
-98 -106 0
-98 -107 0
-98 -108 0
-98 -109 0
-98 -110 0
-98 -171 0
-98 -173 0
-98 -174 0
-98 -176 0
-98 -177 0
-98 -178 0
-98 -179 0
-98 -180 0
-99 -101 0
-99 -102 0
-99 -103 0
-99 -104 0
-99 -105 0
-99 -106 0
-99 -107 0
-99 -108 0
-99 -109 0
-99 -171 0
-99 -172 0
-99 -173 0
-99 -175 0
-99 -176 0
-99 -177 0
-99 -178 0
-99 -179 0
-100 -102 0
-100 -103 0
-100 -104 0
-100 -105 0
-100 -106 0
-100 -107 0
-100 -108 0
-100 -109 0
-100 -110 0
-100 -172 0
-100 -173 0
-100 -174 0
-100 -175 0
-100 -176 0
-100 -177 0
-100 -178 0
-100 -179 0
-100 -180 0
-101 -111 0
-101 -113 0
-101 -114 0
-101 -116 0
-101 -117 0
-101 -118 0
-101 -119 0
-101 -120 0
-101 -181 0
-101 -183 0
-101 -184 0
-101 -186 0
-101 -187 0
-101 -188 0
-101 -189 0
-101 -190 0
-102 -111 0
-102 -112 0
-102 -114 0
-102 -115 0
-102 -116 0
-102 -117 0
-102 -118 0
-102 -119 0
-102 -120 0
-102 -181 0
-102 -182 0
-102 -183 0
-102 -184 0
-102 -185 0
-102 -187 0
-102 -188 0
-102 -189 0
-102 -190 0
-103 -111 0
-103 -112 0
-103 -113 0
-103 -115 0
-103 -116 0
-103 -117 0
-103 -118 0
-103 -119 0
-103 -120 0
-103 -181 0
-103 -182 0
-103 -183 0
-103 -184 0
-103 -185 0
-103 -186 0
-103 -188 0
-103 -189 0
-103 -190 0
-104 -112 0
-104 -113 0
-104 -114 0
-104 -115 0
-104 -116 0
-104 -117 0
-104 -118 0
-104 -119 0
-104 -120 0
-104 -181 0
-104 -182 0
-104 -183 0
-104 -184 0
-104 -185 0
-104 -186 0
-104 -187 0
-104 -189 0
-104 -190 0
-105 -111 0
-105 -112 0
-105 -113 0
-105 -114 0
-105 -115 0
-105 -117 0
-105 -118 0
-105 -120 0
-105 -181 0
-105 -182 0
-105 -184 0
-105 -185 0
-105 -186 0
-105 -187 0
-105 -188 0
-105 -190 0
-106 -111 0
-106 -112 0
-106 -113 0
-106 -114 0
-106 -115 0
-106 -116 0
-106 -118 0
-106 -119 0
-106 -120 0
-106 -181 0
-106 -182 0
-106 -183 0
-106 -185 0
-106 -186 0
-106 -187 0
-106 -188 0
-106 -189 0
-107 -111 0
-107 -112 0
-107 -113 0
-107 -114 0
-107 -115 0
-107 -116 0
-107 -117 0
-107 -119 0
-107 -120 0
-107 -182 0
-107 -183 0
-107 -184 0
-107 -185 0
-107 -186 0
-107 -187 0
-107 -188 0
-107 -189 0
-107 -190 0
-108 -111 0
-108 -113 0
-108 -114 0
-108 -116 0
-108 -117 0
-108 -118 0
-108 -119 0
-108 -120 0
-108 -181 0
-108 -183 0
-108 -184 0
-108 -186 0
-108 -187 0
-108 -188 0
-108 -189 0
-108 -190 0
-109 -111 0
-109 -112 0
-109 -113 0
-109 -114 0
-109 -115 0
-109 -116 0
-109 -117 0
-109 -118 0
-109 -119 0
-109 -181 0
-109 -182 0
-109 -183 0
-109 -185 0
-109 -186 0
-109 -187 0
-109 -188 0
-109 -189 0
-110 -112 0
-110 -113 0
-110 -114 0
-110 -115 0
-110 -116 0
-110 -117 0
-110 -118 0
-110 -119 0
-110 -120 0
-110 -182 0
-110 -183 0
-110 -184 0
-110 -185 0
-110 -186 0
-110 -187 0
-110 -188 0
-110 -189 0
-110 -190 0
-111 -121 0
-111 -123 0
-111 -124 0
-111 -126 0
-111 -127 0
-111 -128 0
-111 -129 0
-111 -130 0
-111 -191 0
-111 -193 0
-111 -194 0
-111 -196 0
-111 -197 0
-111 -198 0
-111 -199 0
-111 -200 0
-112 -121 0
-112 -122 0
-112 -124 0
-112 -125 0
-112 -126 0
-112 -127 0
-112 -128 0
-112 -129 0
-112 -130 0
-112 -191 0
-112 -192 0
-112 -193 0
-112 -194 0
-112 -195 0
-112 -197 0
-112 -198 0
-112 -199 0
-112 -200 0
-113 -121 0
-113 -122 0
-113 -123 0
-113 -125 0
-113 -126 0
-113 -127 0
-113 -128 0
-113 -129 0
-113 -130 0
-113 -191 0
-113 -192 0
-113 -193 0
-113 -194 0
-113 -195 0
-113 -196 0
-113 -198 0
-113 -199 0
-113 -200 0
-114 -122 0
-114 -123 0
-114 -124 0
-114 -125 0
-114 -126 0
-114 -127 0
-114 -128 0
-114 -129 0
-114 -130 0
-114 -191 0
-114 -192 0
-114 -193 0
-114 -194 0
-114 -195 0
-114 -196 0
-114 -197 0
-114 -199 0
-114 -200 0
-115 -121 0
-115 -122 0
-115 -123 0
-115 -124 0
-115 -125 0
-115 -127 0
-115 -128 0
-115 -130 0
-115 -191 0
-115 -192 0
-115 -194 0
-115 -195 0
-115 -196 0
-115 -197 0
-115 -198 0
-115 -200 0
-116 -121 0
-116 -122 0
-116 -123 0
-116 -124 0
-116 -125 0
-116 -126 0
-116 -128 0
-116 -129 0
-116 -130 0
-116 -191 0
-116 -192 0
-116 -193 0
-116 -195 0
-116 -196 0
-116 -197 0
-116 -198 0
-116 -199 0
-117 -121 0
-117 -122 0
-117 -123 0
-117 -124 0
-117 -125 0
-117 -126 0
-117 -127 0
-117 -129 0
-117 -130 0
-117 -192 0
-117 -193 0
-117 -194 0
-117 -195 0
-117 -196 0
-117 -197 0
-117 -198 0
-117 -199 0
-117 -200 0
-118 -121 0
-118 -123 0
-118 -124 0
-118 -126 0
-118 -127 0
-118 -128 0
-118 -129 0
-118 -130 0
-118 -191 0
-118 -193 0
-118 -194 0
-118 -196 0
-118 -197 0
-118 -198 0
-118 -199 0
-118 -200 0
-119 -121 0
-119 -122 0
-119 -123 0
-119 -124 0
-119 -125 0
-119 -126 0
-119 -127 0
-119 -128 0
-119 -129 0
-119 -191 0
-119 -192 0
-119 -193 0
-119 -195 0
-119 -196 0
-119 -197 0
-119 -198 0
-119 -199 0
-120 -122 0
-120 -123 0
-120 -124 0
-120 -125 0
-120 -126 0
-120 -127 0
-120 -128 0
-120 -129 0
-120 -130 0
-120 -192 0
-120 -193 0
-120 -194 0
-120 -195 0
-120 -196 0
-120 -197 0
-120 -198 0
-120 -199 0
-120 -200 0
-121 -131 0
-121 -133 0
-121 -134 0
-121 -136 0
-121 -137 0
-121 -138 0
-121 -139 0
-121 -140 0
-121 -201 0
-121 -203 0
-121 -204 0
-121 -206 0
-121 -207 0
-121 -208 0
-121 -209 0
-121 -210 0
-122 -131 0
-122 -132 0
-122 -134 0
-122 -135 0
-122 -136 0
-122 -137 0
-122 -138 0
-122 -139 0
-122 -140 0
-122 -201 0
-122 -202 0
-122 -203 0
-122 -204 0
-122 -205 0
-122 -207 0
-122 -208 0
-122 -209 0
-122 -210 0
-123 -131 0
-123 -132 0
-123 -133 0
-123 -135 0
-123 -136 0
-123 -137 0
-123 -138 0
-123 -139 0
-123 -140 0
-123 -201 0
-123 -202 0
-123 -203 0
-123 -204 0
-123 -205 0
-123 -206 0
-123 -208 0
-123 -209 0
-123 -210 0
-124 -132 0
-124 -133 0
-124 -134 0
-124 -135 0
-124 -136 0
-124 -137 0
-124 -138 0
-124 -139 0
-124 -140 0
-124 -201 0
-124 -202 0
-124 -203 0
-124 -204 0
-124 -205 0
-124 -206 0
-124 -207 0
-124 -209 0
-124 -210 0
-125 -131 0
-125 -132 0
-125 -133 0
-125 -134 0
-125 -135 0
-125 -137 0
-125 -138 0
-125 -140 0
-125 -201 0
-125 -202 0
-125 -204 0
-125 -205 0
-125 -206 0
-125 -207 0
-125 -208 0
-125 -210 0
-126 -131 0
-126 -132 0
-126 -133 0
-126 -134 0
-126 -135 0
-126 -136 0
-126 -138 0
-126 -139 0
-126 -140 0
-126 -201 0
-126 -202 0
-126 -203 0
-126 -205 0
-126 -206 0
-126 -207 0
-126 -208 0
-126 -209 0
-127 -131 0
-127 -132 0
-127 -133 0
-127 -134 0
-127 -135 0
-127 -136 0
-127 -137 0
-127 -139 0
-127 -140 0
-127 -202 0
-127 -203 0
-127 -204 0
-127 -205 0
-127 -206 0
-127 -207 0
-127 -208 0
-127 -209 0
-127 -210 0
-128 -131 0
-128 -133 0
-128 -134 0
-128 -136 0
-128 -137 0
-128 -138 0
-128 -139 0
-128 -140 0
-128 -201 0
-128 -203 0
-128 -204 0
-128 -206 0
-128 -207 0
-128 -208 0
-128 -209 0
-128 -210 0
-129 -131 0
-129 -132 0
-129 -133 0
-129 -134 0
-129 -135 0
-129 -136 0
-129 -137 0
-129 -138 0
-129 -139 0
-129 -201 0
-129 -202 0
-129 -203 0
-129 -205 0
-129 -206 0
-129 -207 0
-129 -208 0
-129 -209 0
-130 -132 0
-130 -133 0
-130 -134 0
-130 -135 0
-130 -136 0
-130 -137 0
-130 -138 0
-130 -139 0
-130 -140 0
-130 -202 0
-130 -203 0
-130 -204 0
-130 -205 0
-130 -206 0
-130 -207 0
-130 -208 0
-130 -209 0
-130 -210 0
-131 -141 0
-131 -143 0
-131 -144 0
-131 -146 0
-131 -147 0
-131 -148 0
-131 -149 0
-131 -150 0
-131 -211 0
-131 -213 0
-131 -214 0
-131 -216 0
-131 -217 0
-131 -218 0
-131 -219 0
-131 -220 0
-132 -141 0
-132 -142 0
-132 -144 0
-132 -145 0
-132 -146 0
-132 -147 0
-132 -148 0
-132 -149 0
-132 -150 0
-132 -211 0
-132 -212 0
-132 -213 0
-132 -214 0
-132 -215 0
-132 -217 0
-132 -218 0
-132 -219 0
-132 -220 0
-133 -141 0
-133 -142 0
-133 -143 0
-133 -145 0
-133 -146 0
-133 -147 0
-133 -148 0
-133 -149 0
-133 -150 0
-133 -211 0
-133 -212 0
-133 -213 0
-133 -214 0
-133 -215 0
-133 -216 0
-133 -218 0
-133 -219 0
-133 -220 0
-134 -142 0
-134 -143 0
-134 -144 0
-134 -145 0
-134 -146 0
-134 -147 0
-134 -148 0
-134 -149 0
-134 -150 0
-134 -211 0
-134 -212 0
-134 -213 0
-134 -214 0
-134 -215 0
-134 -216 0
-134 -217 0
-134 -219 0
-134 -220 0
-135 -141 0
-135 -142 0
-135 -143 0
-135 -144 0
-135 -145 0
-135 -147 0
-135 -148 0
-135 -150 0
-135 -211 0
-135 -212 0
-135 -214 0
-135 -215 0
-135 -216 0
-135 -217 0
-135 -218 0
-135 -220 0
-136 -141 0
-136 -142 0
-136 -143 0
-136 -144 0
-136 -145 0
-136 -146 0
-136 -148 0
-136 -149 0
-136 -150 0
-136 -211 0
-136 -212 0
-136 -213 0
-136 -215 0
-136 -216 0
-136 -217 0
-136 -218 0
-136 -219 0
-137 -141 0
-137 -142 0
-137 -143 0
-137 -144 0
-137 -145 0
-137 -146 0
-137 -147 0
-137 -149 0
-137 -150 0
-137 -212 0
-137 -213 0
-137 -214 0
-137 -215 0
-137 -216 0
-137 -217 0
-137 -218 0
-137 -219 0
-137 -220 0
-138 -141 0
-138 -143 0
-138 -144 0
-138 -146 0
-138 -147 0
-138 -148 0
-138 -149 0
-138 -150 0
-138 -211 0
-138 -213 0
-138 -214 0
-138 -216 0
-138 -217 0
-138 -218 0
-138 -219 0
-138 -220 0
-139 -141 0
-139 -142 0
-139 -143 0
-139 -144 0
-139 -145 0
-139 -146 0
-139 -147 0
-139 -148 0
-139 -149 0
-139 -211 0
-139 -212 0
-139 -213 0
-139 -215 0
-139 -216 0
-139 -217 0
-139 -218 0
-139 -219 0
-140 -142 0
-140 -143 0
-140 -144 0
-140 -145 0
-140 -146 0
-140 -147 0
-140 -148 0
-140 -149 0
-140 -150 0
-140 -212 0
-140 -213 0
-140 -214 0
-140 -215 0
-140 -216 0
-140 -217 0
-140 -218 0
-140 -219 0
-140 -220 0
-141 -151 0
-141 -153 0
-141 -154 0
-141 -156 0
-141 -157 0
-141 -158 0
-141 -159 0
-141 -160 0
-141 -221 0
-141 -223 0
-141 -224 0
-141 -226 0
-141 -227 0
-141 -228 0
-141 -229 0
-141 -230 0
-142 -151 0
-142 -152 0
-142 -154 0
-142 -155 0
-142 -156 0
-142 -157 0
-142 -158 0
-142 -159 0
-142 -160 0
-142 -221 0
-142 -222 0
-142 -223 0
-142 -224 0
-142 -225 0
-142 -227 0
-142 -228 0
-142 -229 0
-142 -230 0
-143 -151 0
-143 -152 0
-143 -153 0
-143 -155 0
-143 -156 0
-143 -157 0
-143 -158 0
-143 -159 0
-143 -160 0
-143 -221 0
-143 -222 0
-143 -223 0
-143 -224 0
-143 -225 0
-143 -226 0
-143 -228 0
-143 -229 0
-143 -230 0
-144 -152 0
-144 -153 0
-144 -154 0
-144 -155 0
-144 -156 0
-144 -157 0
-144 -158 0
-144 -159 0
-144 -160 0
-144 -221 0
-144 -222 0
-144 -223 0
-144 -224 0
-144 -225 0
-144 -226 0
-144 -227 0
-144 -229 0
-144 -230 0
-145 -151 0
-145 -152 0
-145 -153 0
-145 -154 0
-145 -155 0
-145 -157 0
-145 -158 0
-145 -160 0
-145 -221 0
-145 -222 0
-145 -224 0
-145 -225 0
-145 -226 0
-145 -227 0
-145 -228 0
-145 -230 0
-146 -151 0
-146 -152 0
-146 -153 0
-146 -154 0
-146 -155 0
-146 -156 0
-146 -158 0
-146 -159 0
-146 -160 0
-146 -221 0
-146 -222 0
-146 -223 0
-146 -225 0
-146 -226 0
-146 -227 0
-146 -228 0
-146 -229 0
-147 -151 0
-147 -152 0
-147 -153 0
-147 -154 0
-147 -155 0
-147 -156 0
-147 -157 0
-147 -159 0
-147 -160 0
-147 -222 0
-147 -223 0
-147 -224 0
-147 -225 0
-147 -226 0
-147 -227 0
-147 -228 0
-147 -229 0
-147 -230 0
-148 -151 0
-148 -153 0
-148 -154 0
-148 -156 0
-148 -157 0
-148 -158 0
-148 -159 0
-148 -160 0
-148 -221 0
-148 -223 0
-148 -224 0
-148 -226 0
-148 -227 0
-148 -228 0
-148 -229 0
-148 -230 0
-149 -151 0
-149 -152 0
-149 -153 0
-149 -154 0
-149 -155 0
-149 -156 0
-149 -157 0
-149 -158 0
-149 -159 0
-149 -221 0
-149 -222 0
-149 -223 0
-149 -225 0
-149 -226 0
-149 -227 0
-149 -228 0
-149 -229 0
-150 -152 0
-150 -153 0
-150 -154 0
-150 -155 0
-150 -156 0
-150 -157 0
-150 -158 0
-150 -159 0
-150 -160 0
-150 -222 0
-150 -223 0
-150 -224 0
-150 -225 0
-150 -226 0
-150 -227 0
-150 -228 0
-150 -229 0
-150 -230 0
-151 -231 0
-151 -233 0
-151 -234 0
-151 -236 0
-151 -237 0
-151 -238 0
-151 -239 0
-151 -240 0
-152 -231 0
-152 -232 0
-152 -233 0
-152 -234 0
-152 -235 0
-152 -237 0
-152 -238 0
-152 -239 0
-152 -240 0
-153 -231 0
-153 -232 0
-153 -233 0
-153 -234 0
-153 -235 0
-153 -236 0
-153 -238 0
-153 -239 0
-153 -240 0
-154 -231 0
-154 -232 0
-154 -233 0
-154 -234 0
-154 -235 0
-154 -236 0
-154 -237 0
-154 -239 0
-154 -240 0
-155 -231 0
-155 -232 0
-155 -234 0
-155 -235 0
-155 -236 0
-155 -237 0
-155 -238 0
-155 -240 0
-156 -231 0
-156 -232 0
-156 -233 0
-156 -235 0
-156 -236 0
-156 -237 0
-156 -238 0
-156 -239 0
-157 -232 0
-157 -233 0
-157 -234 0
-157 -235 0
-157 -236 0
-157 -237 0
-157 -238 0
-157 -239 0
-157 -240 0
-158 -231 0
-158 -233 0
-158 -234 0
-158 -236 0
-158 -237 0
-158 -238 0
-158 -239 0
-158 -240 0
-159 -231 0
-159 -232 0
-159 -233 0
-159 -235 0
-159 -236 0
-159 -237 0
-159 -238 0
-159 -239 0
-160 -232 0
-160 -233 0
-160 -234 0
-160 -235 0
-160 -236 0
-160 -237 0
-160 -238 0
-160 -239 0
-160 -240 0
-161 -171 0
-161 -173 0
-161 -174 0
-161 -176 0
-161 -177 0
-161 -178 0
-161 -179 0
-161 -180 0
-161 -241 0
-161 -243 0
-161 -244 0
-161 -246 0
-161 -247 0
-161 -248 0
-161 -249 0
-161 -250 0
-162 -171 0
-162 -172 0
-162 -174 0
-162 -175 0
-162 -176 0
-162 -177 0
-162 -178 0
-162 -179 0
-162 -180 0
-162 -241 0
-162 -242 0
-162 -243 0
-162 -244 0
-162 -245 0
-162 -247 0
-162 -248 0
-162 -249 0
-162 -250 0
-163 -171 0
-163 -172 0
-163 -173 0
-163 -175 0
-163 -176 0
-163 -177 0
-163 -178 0
-163 -179 0
-163 -180 0
-163 -241 0
-163 -242 0
-163 -243 0
-163 -244 0
-163 -245 0
-163 -246 0
-163 -248 0
-163 -249 0
-163 -250 0
-164 -172 0
-164 -173 0
-164 -174 0
-164 -175 0
-164 -176 0
-164 -177 0
-164 -178 0
-164 -179 0
-164 -180 0
-164 -241 0
-164 -242 0
-164 -243 0
-164 -244 0
-164 -245 0
-164 -246 0
-164 -247 0
-164 -249 0
-164 -250 0
-165 -171 0
-165 -172 0
-165 -173 0
-165 -174 0
-165 -175 0
-165 -177 0
-165 -178 0
-165 -180 0
-165 -241 0
-165 -242 0
-165 -244 0
-165 -245 0
-165 -246 0
-165 -247 0
-165 -248 0
-165 -250 0
-166 -171 0
-166 -172 0
-166 -173 0
-166 -174 0
-166 -175 0
-166 -176 0
-166 -178 0
-166 -179 0
-166 -180 0
-166 -241 0
-166 -242 0
-166 -243 0
-166 -245 0
-166 -246 0
-166 -247 0
-166 -248 0
-166 -249 0
-167 -171 0
-167 -172 0
-167 -173 0
-167 -174 0
-167 -175 0
-167 -176 0
-167 -177 0
-167 -179 0
-167 -180 0
-167 -242 0
-167 -243 0
-167 -244 0
-167 -245 0
-167 -246 0
-167 -247 0
-167 -248 0
-167 -249 0
-167 -250 0
-168 -171 0
-168 -173 0
-168 -174 0
-168 -176 0
-168 -177 0
-168 -178 0
-168 -179 0
-168 -180 0
-168 -241 0
-168 -243 0
-168 -244 0
-168 -246 0
-168 -247 0
-168 -248 0
-168 -249 0
-168 -250 0
-169 -171 0
-169 -172 0
-169 -173 0
-169 -174 0
-169 -175 0
-169 -176 0
-169 -177 0
-169 -178 0
-169 -179 0
-169 -241 0
-169 -242 0
-169 -243 0
-169 -245 0
-169 -246 0
-169 -247 0
-169 -248 0
-169 -249 0
-170 -172 0
-170 -173 0
-170 -174 0
-170 -175 0
-170 -176 0
-170 -177 0
-170 -178 0
-170 -179 0
-170 -180 0
-170 -242 0
-170 -243 0
-170 -244 0
-170 -245 0
-170 -246 0
-170 -247 0
-170 -248 0
-170 -249 0
-170 -250 0
-171 -181 0
-171 -183 0
-171 -184 0
-171 -186 0
-171 -187 0
-171 -188 0
-171 -189 0
-171 -190 0
-171 -251 0
-171 -253 0
-171 -254 0
-171 -256 0
-171 -257 0
-171 -258 0
-171 -259 0
-171 -260 0
-172 -181 0
-172 -182 0
-172 -184 0
-172 -185 0
-172 -186 0
-172 -187 0
-172 -188 0
-172 -189 0
-172 -190 0
-172 -251 0
-172 -252 0
-172 -253 0
-172 -254 0
-172 -255 0
-172 -257 0
-172 -258 0
-172 -259 0
-172 -260 0
-173 -181 0
-173 -182 0
-173 -183 0
-173 -185 0
-173 -186 0
-173 -187 0
-173 -188 0
-173 -189 0
-173 -190 0
-173 -251 0
-173 -252 0
-173 -253 0
-173 -254 0
-173 -255 0
-173 -256 0
-173 -258 0
-173 -259 0
-173 -260 0
-174 -182 0
-174 -183 0
-174 -184 0
-174 -185 0
-174 -186 0
-174 -187 0
-174 -188 0
-174 -189 0
-174 -190 0
-174 -251 0
-174 -252 0
-174 -253 0
-174 -254 0
-174 -255 0
-174 -256 0
-174 -257 0
-174 -259 0
-174 -260 0
-175 -181 0
-175 -182 0
-175 -183 0
-175 -184 0
-175 -185 0
-175 -187 0
-175 -188 0
-175 -190 0
-175 -251 0
-175 -252 0
-175 -254 0
-175 -255 0
-175 -256 0
-175 -257 0
-175 -258 0
-175 -260 0
-176 -181 0
-176 -182 0
-176 -183 0
-176 -184 0
-176 -185 0
-176 -186 0
-176 -188 0
-176 -189 0
-176 -190 0
-176 -251 0
-176 -252 0
-176 -253 0
-176 -255 0
-176 -256 0
-176 -257 0
-176 -258 0
-176 -259 0
-177 -181 0
-177 -182 0
-177 -183 0
-177 -184 0
-177 -185 0
-177 -186 0
-177 -187 0
-177 -189 0
-177 -190 0
-177 -252 0
-177 -253 0
-177 -254 0
-177 -255 0
-177 -256 0
-177 -257 0
-177 -258 0
-177 -259 0
-177 -260 0
-178 -181 0
-178 -183 0
-178 -184 0
-178 -186 0
-178 -187 0
-178 -188 0
-178 -189 0
-178 -190 0
-178 -251 0
-178 -253 0
-178 -254 0
-178 -256 0
-178 -257 0
-178 -258 0
-178 -259 0
-178 -260 0
-179 -181 0
-179 -182 0
-179 -183 0
-179 -184 0
-179 -185 0
-179 -186 0
-179 -187 0
-179 -188 0
-179 -189 0
-179 -251 0
-179 -252 0
-179 -253 0
-179 -255 0
-179 -256 0
-179 -257 0
-179 -258 0
-179 -259 0
-180 -182 0
-180 -183 0
-180 -184 0
-180 -185 0
-180 -186 0
-180 -187 0
-180 -188 0
-180 -189 0
-180 -190 0
-180 -252 0
-180 -253 0
-180 -254 0
-180 -255 0
-180 -256 0
-180 -257 0
-180 -258 0
-180 -259 0
-180 -260 0
-181 -191 0
-181 -193 0
-181 -194 0
-181 -196 0
-181 -197 0
-181 -198 0
-181 -199 0
-181 -200 0
-181 -261 0
-181 -263 0
-181 -264 0
-181 -266 0
-181 -267 0
-181 -268 0
-181 -269 0
-181 -270 0
-182 -191 0
-182 -192 0
-182 -194 0
-182 -195 0
-182 -196 0
-182 -197 0
-182 -198 0
-182 -199 0
-182 -200 0
-182 -261 0
-182 -262 0
-182 -263 0
-182 -264 0
-182 -265 0
-182 -267 0
-182 -268 0
-182 -269 0
-182 -270 0
-183 -191 0
-183 -192 0
-183 -193 0
-183 -195 0
-183 -196 0
-183 -197 0
-183 -198 0
-183 -199 0
-183 -200 0
-183 -261 0
-183 -262 0
-183 -263 0
-183 -264 0
-183 -265 0
-183 -266 0
-183 -268 0
-183 -269 0
-183 -270 0
-184 -192 0
-184 -193 0
-184 -194 0
-184 -195 0
-184 -196 0
-184 -197 0
-184 -198 0
-184 -199 0
-184 -200 0
-184 -261 0
-184 -262 0
-184 -263 0
-184 -264 0
-184 -265 0
-184 -266 0
-184 -267 0
-184 -269 0
-184 -270 0
-185 -191 0
-185 -192 0
-185 -193 0
-185 -194 0
-185 -195 0
-185 -197 0
-185 -198 0
-185 -200 0
-185 -261 0
-185 -262 0
-185 -264 0
-185 -265 0
-185 -266 0
-185 -267 0
-185 -268 0
-185 -270 0
-186 -191 0
-186 -192 0
-186 -193 0
-186 -194 0
-186 -195 0
-186 -196 0
-186 -198 0
-186 -199 0
-186 -200 0
-186 -261 0
-186 -262 0
-186 -263 0
-186 -265 0
-186 -266 0
-186 -267 0
-186 -268 0
-186 -269 0
-187 -191 0
-187 -192 0
-187 -193 0
-187 -194 0
-187 -195 0
-187 -196 0
-187 -197 0
-187 -199 0
-187 -200 0
-187 -262 0
-187 -263 0
-187 -264 0
-187 -265 0
-187 -266 0
-187 -267 0
-187 -268 0
-187 -269 0
-187 -270 0
-188 -191 0
-188 -193 0
-188 -194 0
-188 -196 0
-188 -197 0
-188 -198 0
-188 -199 0
-188 -200 0
-188 -261 0
-188 -263 0
-188 -264 0
-188 -266 0
-188 -267 0
-188 -268 0
-188 -269 0
-188 -270 0
-189 -191 0
-189 -192 0
-189 -193 0
-189 -194 0
-189 -195 0
-189 -196 0
-189 -197 0
-189 -198 0
-189 -199 0
-189 -261 0
-189 -262 0
-189 -263 0
-189 -265 0
-189 -266 0
-189 -267 0
-189 -268 0
-189 -269 0
-190 -192 0
-190 -193 0
-190 -194 0
-190 -195 0
-190 -196 0
-190 -197 0
-190 -198 0
-190 -199 0
-190 -200 0
-190 -262 0
-190 -263 0
-190 -264 0
-190 -265 0
-190 -266 0
-190 -267 0
-190 -268 0
-190 -269 0
-190 -270 0
-191 -201 0
-191 -203 0
-191 -204 0
-191 -206 0
-191 -207 0
-191 -208 0
-191 -209 0
-191 -210 0
-191 -271 0
-191 -273 0
-191 -274 0
-191 -276 0
-191 -277 0
-191 -278 0
-191 -279 0
-191 -280 0
-192 -201 0
-192 -202 0
-192 -204 0
-192 -205 0
-192 -206 0
-192 -207 0
-192 -208 0
-192 -209 0
-192 -210 0
-192 -271 0
-192 -272 0
-192 -273 0
-192 -274 0
-192 -275 0
-192 -277 0
-192 -278 0
-192 -279 0
-192 -280 0
-193 -201 0
-193 -202 0
-193 -203 0
-193 -205 0
-193 -206 0
-193 -207 0
-193 -208 0
-193 -209 0
-193 -210 0
-193 -271 0
-193 -272 0
-193 -273 0
-193 -274 0
-193 -275 0
-193 -276 0
-193 -278 0
-193 -279 0
-193 -280 0
-194 -202 0
-194 -203 0
-194 -204 0
-194 -205 0
-194 -206 0
-194 -207 0
-194 -208 0
-194 -209 0
-194 -210 0
-194 -271 0
-194 -272 0
-194 -273 0
-194 -274 0
-194 -275 0
-194 -276 0
-194 -277 0
-194 -279 0
-194 -280 0
-195 -201 0
-195 -202 0
-195 -203 0
-195 -204 0
-195 -205 0
-195 -207 0
-195 -208 0
-195 -210 0
-195 -271 0
-195 -272 0
-195 -274 0
-195 -275 0
-195 -276 0
-195 -277 0
-195 -278 0
-195 -280 0
-196 -201 0
-196 -202 0
-196 -203 0
-196 -204 0
-196 -205 0
-196 -206 0
-196 -208 0
-196 -209 0
-196 -210 0
-196 -271 0
-196 -272 0
-196 -273 0
-196 -275 0
-196 -276 0
-196 -277 0
-196 -278 0
-196 -279 0
-197 -201 0
-197 -202 0
-197 -203 0
-197 -204 0
-197 -205 0
-197 -206 0
-197 -207 0
-197 -209 0
-197 -210 0
-197 -272 0
-197 -273 0
-197 -274 0
-197 -275 0
-197 -276 0
-197 -277 0
-197 -278 0
-197 -279 0
-197 -280 0
-198 -201 0
-198 -203 0
-198 -204 0
-198 -206 0
-198 -207 0
-198 -208 0
-198 -209 0
-198 -210 0
-198 -271 0
-198 -273 0
-198 -274 0
-198 -276 0
-198 -277 0
-198 -278 0
-198 -279 0
-198 -280 0
-199 -201 0
-199 -202 0
-199 -203 0
-199 -204 0
-199 -205 0
-199 -206 0
-199 -207 0
-199 -208 0
-199 -209 0
-199 -271 0
-199 -272 0
-199 -273 0
-199 -275 0
-199 -276 0
-199 -277 0
-199 -278 0
-199 -279 0
-200 -202 0
-200 -203 0
-200 -204 0
-200 -205 0
-200 -206 0
-200 -207 0
-200 -208 0
-200 -209 0
-200 -210 0
-200 -272 0
-200 -273 0
-200 -274 0
-200 -275 0
-200 -276 0
-200 -277 0
-200 -278 0
-200 -279 0
-200 -280 0
-201 -211 0
-201 -213 0
-201 -214 0
-201 -216 0
-201 -217 0
-201 -218 0
-201 -219 0
-201 -220 0
-201 -281 0
-201 -283 0
-201 -284 0
-201 -286 0
-201 -287 0
-201 -288 0
-201 -289 0
-201 -290 0
-202 -211 0
-202 -212 0
-202 -214 0
-202 -215 0
-202 -216 0
-202 -217 0
-202 -218 0
-202 -219 0
-202 -220 0
-202 -281 0
-202 -282 0
-202 -283 0
-202 -284 0
-202 -285 0
-202 -287 0
-202 -288 0
-202 -289 0
-202 -290 0
-203 -211 0
-203 -212 0
-203 -213 0
-203 -215 0
-203 -216 0
-203 -217 0
-203 -218 0
-203 -219 0
-203 -220 0
-203 -281 0
-203 -282 0
-203 -283 0
-203 -284 0
-203 -285 0
-203 -286 0
-203 -288 0
-203 -289 0
-203 -290 0
-204 -212 0
-204 -213 0
-204 -214 0
-204 -215 0
-204 -216 0
-204 -217 0
-204 -218 0
-204 -219 0
-204 -220 0
-204 -281 0
-204 -282 0
-204 -283 0
-204 -284 0
-204 -285 0
-204 -286 0
-204 -287 0
-204 -289 0
-204 -290 0
-205 -211 0
-205 -212 0
-205 -213 0
-205 -214 0
-205 -215 0
-205 -217 0
-205 -218 0
-205 -220 0
-205 -281 0
-205 -282 0
-205 -284 0
-205 -285 0
-205 -286 0
-205 -287 0
-205 -288 0
-205 -290 0
-206 -211 0
-206 -212 0
-206 -213 0
-206 -214 0
-206 -215 0
-206 -216 0
-206 -218 0
-206 -219 0
-206 -220 0
-206 -281 0
-206 -282 0
-206 -283 0
-206 -285 0
-206 -286 0
-206 -287 0
-206 -288 0
-206 -289 0
-207 -211 0
-207 -212 0
-207 -213 0
-207 -214 0
-207 -215 0
-207 -216 0
-207 -217 0
-207 -219 0
-207 -220 0
-207 -282 0
-207 -283 0
-207 -284 0
-207 -285 0
-207 -286 0
-207 -287 0
-207 -288 0
-207 -289 0
-207 -290 0
-208 -211 0
-208 -213 0
-208 -214 0
-208 -216 0
-208 -217 0
-208 -218 0
-208 -219 0
-208 -220 0
-208 -281 0
-208 -283 0
-208 -284 0
-208 -286 0
-208 -287 0
-208 -288 0
-208 -289 0
-208 -290 0
-209 -211 0
-209 -212 0
-209 -213 0
-209 -214 0
-209 -215 0
-209 -216 0
-209 -217 0
-209 -218 0
-209 -219 0
-209 -281 0
-209 -282 0
-209 -283 0
-209 -285 0
-209 -286 0
-209 -287 0
-209 -288 0
-209 -289 0
-210 -212 0
-210 -213 0
-210 -214 0
-210 -215 0
-210 -216 0
-210 -217 0
-210 -218 0
-210 -219 0
-210 -220 0
-210 -282 0
-210 -283 0
-210 -284 0
-210 -285 0
-210 -286 0
-210 -287 0
-210 -288 0
-210 -289 0
-210 -290 0
-211 -221 0
-211 -223 0
-211 -224 0
-211 -226 0
-211 -227 0
-211 -228 0
-211 -229 0
-211 -230 0
-211 -291 0
-211 -293 0
-211 -294 0
-211 -296 0
-211 -297 0
-211 -298 0
-211 -299 0
-211 -300 0
-212 -221 0
-212 -222 0
-212 -224 0
-212 -225 0
-212 -226 0
-212 -227 0
-212 -228 0
-212 -229 0
-212 -230 0
-212 -291 0
-212 -292 0
-212 -293 0
-212 -294 0
-212 -295 0
-212 -297 0
-212 -298 0
-212 -299 0
-212 -300 0
-213 -221 0
-213 -222 0
-213 -223 0
-213 -225 0
-213 -226 0
-213 -227 0
-213 -228 0
-213 -229 0
-213 -230 0
-213 -291 0
-213 -292 0
-213 -293 0
-213 -294 0
-213 -295 0
-213 -296 0
-213 -298 0
-213 -299 0
-213 -300 0
-214 -222 0
-214 -223 0
-214 -224 0
-214 -225 0
-214 -226 0
-214 -227 0
-214 -228 0
-214 -229 0
-214 -230 0
-214 -291 0
-214 -292 0
-214 -293 0
-214 -294 0
-214 -295 0
-214 -296 0
-214 -297 0
-214 -299 0
-214 -300 0
-215 -221 0
-215 -222 0
-215 -223 0
-215 -224 0
-215 -225 0
-215 -227 0
-215 -228 0
-215 -230 0
-215 -291 0
-215 -292 0
-215 -294 0
-215 -295 0
-215 -296 0
-215 -297 0
-215 -298 0
-215 -300 0
-216 -221 0
-216 -222 0
-216 -223 0
-216 -224 0
-216 -225 0
-216 -226 0
-216 -228 0
-216 -229 0
-216 -230 0
-216 -291 0
-216 -292 0
-216 -293 0
-216 -295 0
-216 -296 0
-216 -297 0
-216 -298 0
-216 -299 0
-217 -221 0
-217 -222 0
-217 -223 0
-217 -224 0
-217 -225 0
-217 -226 0
-217 -227 0
-217 -229 0
-217 -230 0
-217 -292 0
-217 -293 0
-217 -294 0
-217 -295 0
-217 -296 0
-217 -297 0
-217 -298 0
-217 -299 0
-217 -300 0
-218 -221 0
-218 -223 0
-218 -224 0
-218 -226 0
-218 -227 0
-218 -228 0
-218 -229 0
-218 -230 0
-218 -291 0
-218 -293 0
-218 -294 0
-218 -296 0
-218 -297 0
-218 -298 0
-218 -299 0
-218 -300 0
-219 -221 0
-219 -222 0
-219 -223 0
-219 -224 0
-219 -225 0
-219 -226 0
-219 -227 0
-219 -228 0
-219 -229 0
-219 -291 0
-219 -292 0
-219 -293 0
-219 -295 0
-219 -296 0
-219 -297 0
-219 -298 0
-219 -299 0
-220 -222 0
-220 -223 0
-220 -224 0
-220 -225 0
-220 -226 0
-220 -227 0
-220 -228 0
-220 -229 0
-220 -230 0
-220 -292 0
-220 -293 0
-220 -294 0
-220 -295 0
-220 -296 0
-220 -297 0
-220 -298 0
-220 -299 0
-220 -300 0
-221 -231 0
-221 -233 0
-221 -234 0
-221 -236 0
-221 -237 0
-221 -238 0
-221 -239 0
-221 -240 0
-221 -301 0
-221 -303 0
-221 -304 0
-221 -306 0
-221 -307 0
-221 -308 0
-221 -309 0
-221 -310 0
-222 -231 0
-222 -232 0
-222 -234 0
-222 -235 0
-222 -236 0
-222 -237 0
-222 -238 0
-222 -239 0
-222 -240 0
-222 -301 0
-222 -302 0
-222 -303 0
-222 -304 0
-222 -305 0
-222 -307 0
-222 -308 0
-222 -309 0
-222 -310 0
-223 -231 0
-223 -232 0
-223 -233 0
-223 -235 0
-223 -236 0
-223 -237 0
-223 -238 0
-223 -239 0
-223 -240 0
-223 -301 0
-223 -302 0
-223 -303 0
-223 -304 0
-223 -305 0
-223 -306 0
-223 -308 0
-223 -309 0
-223 -310 0
-224 -232 0
-224 -233 0
-224 -234 0
-224 -235 0
-224 -236 0
-224 -237 0
-224 -238 0
-224 -239 0
-224 -240 0
-224 -301 0
-224 -302 0
-224 -303 0
-224 -304 0
-224 -305 0
-224 -306 0
-224 -307 0
-224 -309 0
-224 -310 0
-225 -231 0
-225 -232 0
-225 -233 0
-225 -234 0
-225 -235 0
-225 -237 0
-225 -238 0
-225 -240 0
-225 -301 0
-225 -302 0
-225 -304 0
-225 -305 0
-225 -306 0
-225 -307 0
-225 -308 0
-225 -310 0
-226 -231 0
-226 -232 0
-226 -233 0
-226 -234 0
-226 -235 0
-226 -236 0
-226 -238 0
-226 -239 0
-226 -240 0
-226 -301 0
-226 -302 0
-226 -303 0
-226 -305 0
-226 -306 0
-226 -307 0
-226 -308 0
-226 -309 0
-227 -231 0
-227 -232 0
-227 -233 0
-227 -234 0
-227 -235 0
-227 -236 0
-227 -237 0
-227 -239 0
-227 -240 0
-227 -302 0
-227 -303 0
-227 -304 0
-227 -305 0
-227 -306 0
-227 -307 0
-227 -308 0
-227 -309 0
-227 -310 0
-228 -231 0
-228 -233 0
-228 -234 0
-228 -236 0
-228 -237 0
-228 -238 0
-228 -239 0
-228 -240 0
-228 -301 0
-228 -303 0
-228 -304 0
-228 -306 0
-228 -307 0
-228 -308 0
-228 -309 0
-228 -310 0
-229 -231 0
-229 -232 0
-229 -233 0
-229 -234 0
-229 -235 0
-229 -236 0
-229 -237 0
-229 -238 0
-229 -239 0
-229 -301 0
-229 -302 0
-229 -303 0
-229 -305 0
-229 -306 0
-229 -307 0
-229 -308 0
-229 -309 0
-230 -232 0
-230 -233 0
-230 -234 0
-230 -235 0
-230 -236 0
-230 -237 0
-230 -238 0
-230 -239 0
-230 -240 0
-230 -302 0
-230 -303 0
-230 -304 0
-230 -305 0
-230 -306 0
-230 -307 0
-230 -308 0
-230 -309 0
-230 -310 0
-231 -311 0
-231 -313 0
-231 -314 0
-231 -316 0
-231 -317 0
-231 -318 0
-231 -319 0
-231 -320 0
-232 -311 0
-232 -312 0
-232 -313 0
-232 -314 0
-232 -315 0
-232 -317 0
-232 -318 0
-232 -319 0
-232 -320 0
-233 -311 0
-233 -312 0
-233 -313 0
-233 -314 0
-233 -315 0
-233 -316 0
-233 -318 0
-233 -319 0
-233 -320 0
-234 -311 0
-234 -312 0
-234 -313 0
-234 -314 0
-234 -315 0
-234 -316 0
-234 -317 0
-234 -319 0
-234 -320 0
-235 -311 0
-235 -312 0
-235 -314 0
-235 -315 0
-235 -316 0
-235 -317 0
-235 -318 0
-235 -320 0
-236 -311 0
-236 -312 0
-236 -313 0
-236 -315 0
-236 -316 0
-236 -317 0
-236 -318 0
-236 -319 0
-237 -312 0
-237 -313 0
-237 -314 0
-237 -315 0
-237 -316 0
-237 -317 0
-237 -318 0
-237 -319 0
-237 -320 0
-238 -311 0
-238 -313 0
-238 -314 0
-238 -316 0
-238 -317 0
-238 -318 0
-238 -319 0
-238 -320 0
-239 -311 0
-239 -312 0
-239 -313 0
-239 -315 0
-239 -316 0
-239 -317 0
-239 -318 0
-239 -319 0
-240 -312 0
-240 -313 0
-240 -314 0
-240 -315 0
-240 -316 0
-240 -317 0
-240 -318 0
-240 -319 0
-240 -320 0
-241 -251 0
-241 -253 0
-241 -254 0
-241 -256 0
-241 -257 0
-241 -258 0
-241 -259 0
-241 -260 0
-241 -321 0
-241 -323 0
-241 -324 0
-241 -326 0
-241 -327 0
-241 -328 0
-241 -329 0
-241 -330 0
-242 -251 0
-242 -252 0
-242 -254 0
-242 -255 0
-242 -256 0
-242 -257 0
-242 -258 0
-242 -259 0
-242 -260 0
-242 -321 0
-242 -322 0
-242 -323 0
-242 -324 0
-242 -325 0
-242 -327 0
-242 -328 0
-242 -329 0
-242 -330 0
-243 -251 0
-243 -252 0
-243 -253 0
-243 -255 0
-243 -256 0
-243 -257 0
-243 -258 0
-243 -259 0
-243 -260 0
-243 -321 0
-243 -322 0
-243 -323 0
-243 -324 0
-243 -325 0
-243 -326 0
-243 -328 0
-243 -329 0
-243 -330 0
-244 -252 0
-244 -253 0
-244 -254 0
-244 -255 0
-244 -256 0
-244 -257 0
-244 -258 0
-244 -259 0
-244 -260 0
-244 -321 0
-244 -322 0
-244 -323 0
-244 -324 0
-244 -325 0
-244 -326 0
-244 -327 0
-244 -329 0
-244 -330 0
-245 -251 0
-245 -252 0
-245 -253 0
-245 -254 0
-245 -255 0
-245 -257 0
-245 -258 0
-245 -260 0
-245 -321 0
-245 -322 0
-245 -324 0
-245 -325 0
-245 -326 0
-245 -327 0
-245 -328 0
-245 -330 0
-246 -251 0
-246 -252 0
-246 -253 0
-246 -254 0
-246 -255 0
-246 -256 0
-246 -258 0
-246 -259 0
-246 -260 0
-246 -321 0
-246 -322 0
-246 -323 0
-246 -325 0
-246 -326 0
-246 -327 0
-246 -328 0
-246 -329 0
-247 -251 0
-247 -252 0
-247 -253 0
-247 -254 0
-247 -255 0
-247 -256 0
-247 -257 0
-247 -259 0
-247 -260 0
-247 -322 0
-247 -323 0
-247 -324 0
-247 -325 0
-247 -326 0
-247 -327 0
-247 -328 0
-247 -329 0
-247 -330 0
-248 -251 0
-248 -253 0
-248 -254 0
-248 -256 0
-248 -257 0
-248 -258 0
-248 -259 0
-248 -260 0
-248 -321 0
-248 -323 0
-248 -324 0
-248 -326 0
-248 -327 0
-248 -328 0
-248 -329 0
-248 -330 0
-249 -251 0
-249 -252 0
-249 -253 0
-249 -254 0
-249 -255 0
-249 -256 0
-249 -257 0
-249 -258 0
-249 -259 0
-249 -321 0
-249 -322 0
-249 -323 0
-249 -325 0
-249 -326 0
-249 -327 0
-249 -328 0
-249 -329 0
-250 -252 0
-250 -253 0
-250 -254 0
-250 -255 0
-250 -256 0
-250 -257 0
-250 -258 0
-250 -259 0
-250 -260 0
-250 -322 0
-250 -323 0
-250 -324 0
-250 -325 0
-250 -326 0
-250 -327 0
-250 -328 0
-250 -329 0
-250 -330 0
-251 -261 0
-251 -263 0
-251 -264 0
-251 -266 0
-251 -267 0
-251 -268 0
-251 -269 0
-251 -270 0
-251 -331 0
-251 -333 0
-251 -334 0
-251 -336 0
-251 -337 0
-251 -338 0
-251 -339 0
-251 -340 0
-252 -261 0
-252 -262 0
-252 -264 0
-252 -265 0
-252 -266 0
-252 -267 0
-252 -268 0
-252 -269 0
-252 -270 0
-252 -331 0
-252 -332 0
-252 -333 0
-252 -334 0
-252 -335 0
-252 -337 0
-252 -338 0
-252 -339 0
-252 -340 0
-253 -261 0
-253 -262 0
-253 -263 0
-253 -265 0
-253 -266 0
-253 -267 0
-253 -268 0
-253 -269 0
-253 -270 0
-253 -331 0
-253 -332 0
-253 -333 0
-253 -334 0
-253 -335 0
-253 -336 0
-253 -338 0
-253 -339 0
-253 -340 0
-254 -262 0
-254 -263 0
-254 -264 0
-254 -265 0
-254 -266 0
-254 -267 0
-254 -268 0
-254 -269 0
-254 -270 0
-254 -331 0
-254 -332 0
-254 -333 0
-254 -334 0
-254 -335 0
-254 -336 0
-254 -337 0
-254 -339 0
-254 -340 0
-255 -261 0
-255 -262 0
-255 -263 0
-255 -264 0
-255 -265 0
-255 -267 0
-255 -268 0
-255 -270 0
-255 -331 0
-255 -332 0
-255 -334 0
-255 -335 0
-255 -336 0
-255 -337 0
-255 -338 0
-255 -340 0
-256 -261 0
-256 -262 0
-256 -263 0
-256 -264 0
-256 -265 0
-256 -266 0
-256 -268 0
-256 -269 0
-256 -270 0
-256 -331 0
-256 -332 0
-256 -333 0
-256 -335 0
-256 -336 0
-256 -337 0
-256 -338 0
-256 -339 0
-257 -261 0
-257 -262 0
-257 -263 0
-257 -264 0
-257 -265 0
-257 -266 0
-257 -267 0
-257 -269 0
-257 -270 0
-257 -332 0
-257 -333 0
-257 -334 0
-257 -335 0
-257 -336 0
-257 -337 0
-257 -338 0
-257 -339 0
-257 -340 0
-258 -261 0
-258 -263 0
-258 -264 0
-258 -266 0
-258 -267 0
-258 -268 0
-258 -269 0
-258 -270 0
-258 -331 0
-258 -333 0
-258 -334 0
-258 -336 0
-258 -337 0
-258 -338 0
-258 -339 0
-258 -340 0
-259 -261 0
-259 -262 0
-259 -263 0
-259 -264 0
-259 -265 0
-259 -266 0
-259 -267 0
-259 -268 0
-259 -269 0
-259 -331 0
-259 -332 0
-259 -333 0
-259 -335 0
-259 -336 0
-259 -337 0
-259 -338 0
-259 -339 0
-260 -262 0
-260 -263 0
-260 -264 0
-260 -265 0
-260 -266 0
-260 -267 0
-260 -268 0
-260 -269 0
-260 -270 0
-260 -332 0
-260 -333 0
-260 -334 0
-260 -335 0
-260 -336 0
-260 -337 0
-260 -338 0
-260 -339 0
-260 -340 0
-261 -271 0
-261 -273 0
-261 -274 0
-261 -276 0
-261 -277 0
-261 -278 0
-261 -279 0
-261 -280 0
-261 -341 0
-261 -343 0
-261 -344 0
-261 -346 0
-261 -347 0
-261 -348 0
-261 -349 0
-261 -350 0
-262 -271 0
-262 -272 0
-262 -274 0
-262 -275 0
-262 -276 0
-262 -277 0
-262 -278 0
-262 -279 0
-262 -280 0
-262 -341 0
-262 -342 0
-262 -343 0
-262 -344 0
-262 -345 0
-262 -347 0
-262 -348 0
-262 -349 0
-262 -350 0
-263 -271 0
-263 -272 0
-263 -273 0
-263 -275 0
-263 -276 0
-263 -277 0
-263 -278 0
-263 -279 0
-263 -280 0
-263 -341 0
-263 -342 0
-263 -343 0
-263 -344 0
-263 -345 0
-263 -346 0
-263 -348 0
-263 -349 0
-263 -350 0
-264 -272 0
-264 -273 0
-264 -274 0
-264 -275 0
-264 -276 0
-264 -277 0
-264 -278 0
-264 -279 0
-264 -280 0
-264 -341 0
-264 -342 0
-264 -343 0
-264 -344 0
-264 -345 0
-264 -346 0
-264 -347 0
-264 -349 0
-264 -350 0
-265 -271 0
-265 -272 0
-265 -273 0
-265 -274 0
-265 -275 0
-265 -277 0
-265 -278 0
-265 -280 0
-265 -341 0
-265 -342 0
-265 -344 0
-265 -345 0
-265 -346 0
-265 -347 0
-265 -348 0
-265 -350 0
-266 -271 0
-266 -272 0
-266 -273 0
-266 -274 0
-266 -275 0
-266 -276 0
-266 -278 0
-266 -279 0
-266 -280 0
-266 -341 0
-266 -342 0
-266 -343 0
-266 -345 0
-266 -346 0
-266 -347 0
-266 -348 0
-266 -349 0
-267 -271 0
-267 -272 0
-267 -273 0
-267 -274 0
-267 -275 0
-267 -276 0
-267 -277 0
-267 -279 0
-267 -280 0
-267 -342 0
-267 -343 0
-267 -344 0
-267 -345 0
-267 -346 0
-267 -347 0
-267 -348 0
-267 -349 0
-267 -350 0
-268 -271 0
-268 -273 0
-268 -274 0
-268 -276 0
-268 -277 0
-268 -278 0
-268 -279 0
-268 -280 0
-268 -341 0
-268 -343 0
-268 -344 0
-268 -346 0
-268 -347 0
-268 -348 0
-268 -349 0
-268 -350 0
-269 -271 0
-269 -272 0
-269 -273 0
-269 -274 0
-269 -275 0
-269 -276 0
-269 -277 0
-269 -278 0
-269 -279 0
-269 -341 0
-269 -342 0
-269 -343 0
-269 -345 0
-269 -346 0
-269 -347 0
-269 -348 0
-269 -349 0
-270 -272 0
-270 -273 0
-270 -274 0
-270 -275 0
-270 -276 0
-270 -277 0
-270 -278 0
-270 -279 0
-270 -280 0
-270 -342 0
-270 -343 0
-270 -344 0
-270 -345 0
-270 -346 0
-270 -347 0
-270 -348 0
-270 -349 0
-270 -350 0
-271 -281 0
-271 -283 0
-271 -284 0
-271 -286 0
-271 -287 0
-271 -288 0
-271 -289 0
-271 -290 0
-271 -351 0
-271 -353 0
-271 -354 0
-271 -356 0
-271 -357 0
-271 -358 0
-271 -359 0
-271 -360 0
-272 -281 0
-272 -282 0
-272 -284 0
-272 -285 0
-272 -286 0
-272 -287 0
-272 -288 0
-272 -289 0
-272 -290 0
-272 -351 0
-272 -352 0
-272 -353 0
-272 -354 0
-272 -355 0
-272 -357 0
-272 -358 0
-272 -359 0
-272 -360 0
-273 -281 0
-273 -282 0
-273 -283 0
-273 -285 0
-273 -286 0
-273 -287 0
-273 -288 0
-273 -289 0
-273 -290 0
-273 -351 0
-273 -352 0
-273 -353 0
-273 -354 0
-273 -355 0
-273 -356 0
-273 -358 0
-273 -359 0
-273 -360 0
-274 -282 0
-274 -283 0
-274 -284 0
-274 -285 0
-274 -286 0
-274 -287 0
-274 -288 0
-274 -289 0
-274 -290 0
-274 -351 0
-274 -352 0
-274 -353 0
-274 -354 0
-274 -355 0
-274 -356 0
-274 -357 0
-274 -359 0
-274 -360 0
-275 -281 0
-275 -282 0
-275 -283 0
-275 -284 0
-275 -285 0
-275 -287 0
-275 -288 0
-275 -290 0
-275 -351 0
-275 -352 0
-275 -354 0
-275 -355 0
-275 -356 0
-275 -357 0
-275 -358 0
-275 -360 0
-276 -281 0
-276 -282 0
-276 -283 0
-276 -284 0
-276 -285 0
-276 -286 0
-276 -288 0
-276 -289 0
-276 -290 0
-276 -351 0
-276 -352 0
-276 -353 0
-276 -355 0
-276 -356 0
-276 -357 0
-276 -358 0
-276 -359 0
-277 -281 0
-277 -282 0
-277 -283 0
-277 -284 0
-277 -285 0
-277 -286 0
-277 -287 0
-277 -289 0
-277 -290 0
-277 -352 0
-277 -353 0
-277 -354 0
-277 -355 0
-277 -356 0
-277 -357 0
-277 -358 0
-277 -359 0
-277 -360 0
-278 -281 0
-278 -283 0
-278 -284 0
-278 -286 0
-278 -287 0
-278 -288 0
-278 -289 0
-278 -290 0
-278 -351 0
-278 -353 0
-278 -354 0
-278 -356 0
-278 -357 0
-278 -358 0
-278 -359 0
-278 -360 0
-279 -281 0
-279 -282 0
-279 -283 0
-279 -284 0
-279 -285 0
-279 -286 0
-279 -287 0
-279 -288 0
-279 -289 0
-279 -351 0
-279 -352 0
-279 -353 0
-279 -355 0
-279 -356 0
-279 -357 0
-279 -358 0
-279 -359 0
-280 -282 0
-280 -283 0
-280 -284 0
-280 -285 0
-280 -286 0
-280 -287 0
-280 -288 0
-280 -289 0
-280 -290 0
-280 -352 0
-280 -353 0
-280 -354 0
-280 -355 0
-280 -356 0
-280 -357 0
-280 -358 0
-280 -359 0
-280 -360 0
-281 -291 0
-281 -293 0
-281 -294 0
-281 -296 0
-281 -297 0
-281 -298 0
-281 -299 0
-281 -300 0
-281 -361 0
-281 -363 0
-281 -364 0
-281 -366 0
-281 -367 0
-281 -368 0
-281 -369 0
-281 -370 0
-282 -291 0
-282 -292 0
-282 -294 0
-282 -295 0
-282 -296 0
-282 -297 0
-282 -298 0
-282 -299 0
-282 -300 0
-282 -361 0
-282 -362 0
-282 -363 0
-282 -364 0
-282 -365 0
-282 -367 0
-282 -368 0
-282 -369 0
-282 -370 0
-283 -291 0
-283 -292 0
-283 -293 0
-283 -295 0
-283 -296 0
-283 -297 0
-283 -298 0
-283 -299 0
-283 -300 0
-283 -361 0
-283 -362 0
-283 -363 0
-283 -364 0
-283 -365 0
-283 -366 0
-283 -368 0
-283 -369 0
-283 -370 0
-284 -292 0
-284 -293 0
-284 -294 0
-284 -295 0
-284 -296 0
-284 -297 0
-284 -298 0
-284 -299 0
-284 -300 0
-284 -361 0
-284 -362 0
-284 -363 0
-284 -364 0
-284 -365 0
-284 -366 0
-284 -367 0
-284 -369 0
-284 -370 0
-285 -291 0
-285 -292 0
-285 -293 0
-285 -294 0
-285 -295 0
-285 -297 0
-285 -298 0
-285 -300 0
-285 -361 0
-285 -362 0
-285 -364 0
-285 -365 0
-285 -366 0
-285 -367 0
-285 -368 0
-285 -370 0
-286 -291 0
-286 -292 0
-286 -293 0
-286 -294 0
-286 -295 0
-286 -296 0
-286 -298 0
-286 -299 0
-286 -300 0
-286 -361 0
-286 -362 0
-286 -363 0
-286 -365 0
-286 -366 0
-286 -367 0
-286 -368 0
-286 -369 0
-287 -291 0
-287 -292 0
-287 -293 0
-287 -294 0
-287 -295 0
-287 -296 0
-287 -297 0
-287 -299 0
-287 -300 0
-287 -362 0
-287 -363 0
-287 -364 0
-287 -365 0
-287 -366 0
-287 -367 0
-287 -368 0
-287 -369 0
-287 -370 0
-288 -291 0
-288 -293 0
-288 -294 0
-288 -296 0
-288 -297 0
-288 -298 0
-288 -299 0
-288 -300 0
-288 -361 0
-288 -363 0
-288 -364 0
-288 -366 0
-288 -367 0
-288 -368 0
-288 -369 0
-288 -370 0
-289 -291 0
-289 -292 0
-289 -293 0
-289 -294 0
-289 -295 0
-289 -296 0
-289 -297 0
-289 -298 0
-289 -299 0
-289 -361 0
-289 -362 0
-289 -363 0
-289 -365 0
-289 -366 0
-289 -367 0
-289 -368 0
-289 -369 0
-290 -292 0
-290 -293 0
-290 -294 0
-290 -295 0
-290 -296 0
-290 -297 0
-290 -298 0
-290 -299 0
-290 -300 0
-290 -362 0
-290 -363 0
-290 -364 0
-290 -365 0
-290 -366 0
-290 -367 0
-290 -368 0
-290 -369 0
-290 -370 0
-291 -301 0
-291 -303 0
-291 -304 0
-291 -306 0
-291 -307 0
-291 -308 0
-291 -309 0
-291 -310 0
-291 -371 0
-291 -373 0
-291 -374 0
-291 -376 0
-291 -377 0
-291 -378 0
-291 -379 0
-291 -380 0
-292 -301 0
-292 -302 0
-292 -304 0
-292 -305 0
-292 -306 0
-292 -307 0
-292 -308 0
-292 -309 0
-292 -310 0
-292 -371 0
-292 -372 0
-292 -373 0
-292 -374 0
-292 -375 0
-292 -377 0
-292 -378 0
-292 -379 0
-292 -380 0
-293 -301 0
-293 -302 0
-293 -303 0
-293 -305 0
-293 -306 0
-293 -307 0
-293 -308 0
-293 -309 0
-293 -310 0
-293 -371 0
-293 -372 0
-293 -373 0
-293 -374 0
-293 -375 0
-293 -376 0
-293 -378 0
-293 -379 0
-293 -380 0
-294 -302 0
-294 -303 0
-294 -304 0
-294 -305 0
-294 -306 0
-294 -307 0
-294 -308 0
-294 -309 0
-294 -310 0
-294 -371 0
-294 -372 0
-294 -373 0
-294 -374 0
-294 -375 0
-294 -376 0
-294 -377 0
-294 -379 0
-294 -380 0
-295 -301 0
-295 -302 0
-295 -303 0
-295 -304 0
-295 -305 0
-295 -307 0
-295 -308 0
-295 -310 0
-295 -371 0
-295 -372 0
-295 -374 0
-295 -375 0
-295 -376 0
-295 -377 0
-295 -378 0
-295 -380 0
-296 -301 0
-296 -302 0
-296 -303 0
-296 -304 0
-296 -305 0
-296 -306 0
-296 -308 0
-296 -309 0
-296 -310 0
-296 -371 0
-296 -372 0
-296 -373 0
-296 -375 0
-296 -376 0
-296 -377 0
-296 -378 0
-296 -379 0
-297 -301 0
-297 -302 0
-297 -303 0
-297 -304 0
-297 -305 0
-297 -306 0
-297 -307 0
-297 -309 0
-297 -310 0
-297 -372 0
-297 -373 0
-297 -374 0
-297 -375 0
-297 -376 0
-297 -377 0
-297 -378 0
-297 -379 0
-297 -380 0
-298 -301 0
-298 -303 0
-298 -304 0
-298 -306 0
-298 -307 0
-298 -308 0
-298 -309 0
-298 -310 0
-298 -371 0
-298 -373 0
-298 -374 0
-298 -376 0
-298 -377 0
-298 -378 0
-298 -379 0
-298 -380 0
-299 -301 0
-299 -302 0
-299 -303 0
-299 -304 0
-299 -305 0
-299 -306 0
-299 -307 0
-299 -308 0
-299 -309 0
-299 -371 0
-299 -372 0
-299 -373 0
-299 -375 0
-299 -376 0
-299 -377 0
-299 -378 0
-299 -379 0
-300 -302 0
-300 -303 0
-300 -304 0
-300 -305 0
-300 -306 0
-300 -307 0
-300 -308 0
-300 -309 0
-300 -310 0
-300 -372 0
-300 -373 0
-300 -374 0
-300 -375 0
-300 -376 0
-300 -377 0
-300 -378 0
-300 -379 0
-300 -380 0
-301 -311 0
-301 -313 0
-301 -314 0
-301 -316 0
-301 -317 0
-301 -318 0
-301 -319 0
-301 -320 0
-301 -381 0
-301 -383 0
-301 -384 0
-301 -386 0
-301 -387 0
-301 -388 0
-301 -389 0
-301 -390 0
-302 -311 0
-302 -312 0
-302 -314 0
-302 -315 0
-302 -316 0
-302 -317 0
-302 -318 0
-302 -319 0
-302 -320 0
-302 -381 0
-302 -382 0
-302 -383 0
-302 -384 0
-302 -385 0
-302 -387 0
-302 -388 0
-302 -389 0
-302 -390 0
-303 -311 0
-303 -312 0
-303 -313 0
-303 -315 0
-303 -316 0
-303 -317 0
-303 -318 0
-303 -319 0
-303 -320 0
-303 -381 0
-303 -382 0
-303 -383 0
-303 -384 0
-303 -385 0
-303 -386 0
-303 -388 0
-303 -389 0
-303 -390 0
-304 -312 0
-304 -313 0
-304 -314 0
-304 -315 0
-304 -316 0
-304 -317 0
-304 -318 0
-304 -319 0
-304 -320 0
-304 -381 0
-304 -382 0
-304 -383 0
-304 -384 0
-304 -385 0
-304 -386 0
-304 -387 0
-304 -389 0
-304 -390 0
-305 -311 0
-305 -312 0
-305 -313 0
-305 -314 0
-305 -315 0
-305 -317 0
-305 -318 0
-305 -320 0
-305 -381 0
-305 -382 0
-305 -384 0
-305 -385 0
-305 -386 0
-305 -387 0
-305 -388 0
-305 -390 0
-306 -311 0
-306 -312 0
-306 -313 0
-306 -314 0
-306 -315 0
-306 -316 0
-306 -318 0
-306 -319 0
-306 -320 0
-306 -381 0
-306 -382 0
-306 -383 0
-306 -385 0
-306 -386 0
-306 -387 0
-306 -388 0
-306 -389 0
-307 -311 0
-307 -312 0
-307 -313 0
-307 -314 0
-307 -315 0
-307 -316 0
-307 -317 0
-307 -319 0
-307 -320 0
-307 -382 0
-307 -383 0
-307 -384 0
-307 -385 0
-307 -386 0
-307 -387 0
-307 -388 0
-307 -389 0
-307 -390 0
-308 -311 0
-308 -313 0
-308 -314 0
-308 -316 0
-308 -317 0
-308 -318 0
-308 -319 0
-308 -320 0
-308 -381 0
-308 -383 0
-308 -384 0
-308 -386 0
-308 -387 0
-308 -388 0
-308 -389 0
-308 -390 0
-309 -311 0
-309 -312 0
-309 -313 0
-309 -314 0
-309 -315 0
-309 -316 0
-309 -317 0
-309 -318 0
-309 -319 0
-309 -381 0
-309 -382 0
-309 -383 0
-309 -385 0
-309 -386 0
-309 -387 0
-309 -388 0
-309 -389 0
-310 -312 0
-310 -313 0
-310 -314 0
-310 -315 0
-310 -316 0
-310 -317 0
-310 -318 0
-310 -319 0
-310 -320 0
-310 -382 0
-310 -383 0
-310 -384 0
-310 -385 0
-310 -386 0
-310 -387 0
-310 -388 0
-310 -389 0
-310 -390 0
-311 -391 0
-311 -393 0
-311 -394 0
-311 -396 0
-311 -397 0
-311 -398 0
-311 -399 0
-311 -400 0
-312 -391 0
-312 -392 0
-312 -393 0
-312 -394 0
-312 -395 0
-312 -397 0
-312 -398 0
-312 -399 0
-312 -400 0
-313 -391 0
-313 -392 0
-313 -393 0
-313 -394 0
-313 -395 0
-313 -396 0
-313 -398 0
-313 -399 0
-313 -400 0
-314 -391 0
-314 -392 0
-314 -393 0
-314 -394 0
-314 -395 0
-314 -396 0
-314 -397 0
-314 -399 0
-314 -400 0
-315 -391 0
-315 -392 0
-315 -394 0
-315 -395 0
-315 -396 0
-315 -397 0
-315 -398 0
-315 -400 0
-316 -391 0
-316 -392 0
-316 -393 0
-316 -395 0
-316 -396 0
-316 -397 0
-316 -398 0
-316 -399 0
-317 -392 0
-317 -393 0
-317 -394 0
-317 -395 0
-317 -396 0
-317 -397 0
-317 -398 0
-317 -399 0
-317 -400 0
-318 -391 0
-318 -393 0
-318 -394 0
-318 -396 0
-318 -397 0
-318 -398 0
-318 -399 0
-318 -400 0
-319 -391 0
-319 -392 0
-319 -393 0
-319 -395 0
-319 -396 0
-319 -397 0
-319 -398 0
-319 -399 0
-320 -392 0
-320 -393 0
-320 -394 0
-320 -395 0
-320 -396 0
-320 -397 0
-320 -398 0
-320 -399 0
-320 -400 0
-321 -331 0
-321 -333 0
-321 -334 0
-321 -336 0
-321 -337 0
-321 -338 0
-321 -339 0
-321 -340 0
-321 -401 0
-321 -403 0
-321 -404 0
-321 -406 0
-321 -407 0
-321 -408 0
-321 -409 0
-321 -410 0
-322 -331 0
-322 -332 0
-322 -334 0
-322 -335 0
-322 -336 0
-322 -337 0
-322 -338 0
-322 -339 0
-322 -340 0
-322 -401 0
-322 -402 0
-322 -403 0
-322 -404 0
-322 -405 0
-322 -407 0
-322 -408 0
-322 -409 0
-322 -410 0
-323 -331 0
-323 -332 0
-323 -333 0
-323 -335 0
-323 -336 0
-323 -337 0
-323 -338 0
-323 -339 0
-323 -340 0
-323 -401 0
-323 -402 0
-323 -403 0
-323 -404 0
-323 -405 0
-323 -406 0
-323 -408 0
-323 -409 0
-323 -410 0
-324 -332 0
-324 -333 0
-324 -334 0
-324 -335 0
-324 -336 0
-324 -337 0
-324 -338 0
-324 -339 0
-324 -340 0
-324 -401 0
-324 -402 0
-324 -403 0
-324 -404 0
-324 -405 0
-324 -406 0
-324 -407 0
-324 -409 0
-324 -410 0
-325 -331 0
-325 -332 0
-325 -333 0
-325 -334 0
-325 -335 0
-325 -337 0
-325 -338 0
-325 -340 0
-325 -401 0
-325 -402 0
-325 -404 0
-325 -405 0
-325 -406 0
-325 -407 0
-325 -408 0
-325 -410 0
-326 -331 0
-326 -332 0
-326 -333 0
-326 -334 0
-326 -335 0
-326 -336 0
-326 -338 0
-326 -339 0
-326 -340 0
-326 -401 0
-326 -402 0
-326 -403 0
-326 -405 0
-326 -406 0
-326 -407 0
-326 -408 0
-326 -409 0
-327 -331 0
-327 -332 0
-327 -333 0
-327 -334 0
-327 -335 0
-327 -336 0
-327 -337 0
-327 -339 0
-327 -340 0
-327 -402 0
-327 -403 0
-327 -404 0
-327 -405 0
-327 -406 0
-327 -407 0
-327 -408 0
-327 -409 0
-327 -410 0
-328 -331 0
-328 -333 0
-328 -334 0
-328 -336 0
-328 -337 0
-328 -338 0
-328 -339 0
-328 -340 0
-328 -401 0
-328 -403 0
-328 -404 0
-328 -406 0
-328 -407 0
-328 -408 0
-328 -409 0
-328 -410 0
-329 -331 0
-329 -332 0
-329 -333 0
-329 -334 0
-329 -335 0
-329 -336 0
-329 -337 0
-329 -338 0
-329 -339 0
-329 -401 0
-329 -402 0
-329 -403 0
-329 -405 0
-329 -406 0
-329 -407 0
-329 -408 0
-329 -409 0
-330 -332 0
-330 -333 0
-330 -334 0
-330 -335 0
-330 -336 0
-330 -337 0
-330 -338 0
-330 -339 0
-330 -340 0
-330 -402 0
-330 -403 0
-330 -404 0
-330 -405 0
-330 -406 0
-330 -407 0
-330 -408 0
-330 -409 0
-330 -410 0
-331 -341 0
-331 -343 0
-331 -344 0
-331 -346 0
-331 -347 0
-331 -348 0
-331 -349 0
-331 -350 0
-331 -411 0
-331 -413 0
-331 -414 0
-331 -416 0
-331 -417 0
-331 -418 0
-331 -419 0
-331 -420 0
-332 -341 0
-332 -342 0
-332 -344 0
-332 -345 0
-332 -346 0
-332 -347 0
-332 -348 0
-332 -349 0
-332 -350 0
-332 -411 0
-332 -412 0
-332 -413 0
-332 -414 0
-332 -415 0
-332 -417 0
-332 -418 0
-332 -419 0
-332 -420 0
-333 -341 0
-333 -342 0
-333 -343 0
-333 -345 0
-333 -346 0
-333 -347 0
-333 -348 0
-333 -349 0
-333 -350 0
-333 -411 0
-333 -412 0
-333 -413 0
-333 -414 0
-333 -415 0
-333 -416 0
-333 -418 0
-333 -419 0
-333 -420 0
-334 -342 0
-334 -343 0
-334 -344 0
-334 -345 0
-334 -346 0
-334 -347 0
-334 -348 0
-334 -349 0
-334 -350 0
-334 -411 0
-334 -412 0
-334 -413 0
-334 -414 0
-334 -415 0
-334 -416 0
-334 -417 0
-334 -419 0
-334 -420 0
-335 -341 0
-335 -342 0
-335 -343 0
-335 -344 0
-335 -345 0
-335 -347 0
-335 -348 0
-335 -350 0
-335 -411 0
-335 -412 0
-335 -414 0
-335 -415 0
-335 -416 0
-335 -417 0
-335 -418 0
-335 -420 0
-336 -341 0
-336 -342 0
-336 -343 0
-336 -344 0
-336 -345 0
-336 -346 0
-336 -348 0
-336 -349 0
-336 -350 0
-336 -411 0
-336 -412 0
-336 -413 0
-336 -415 0
-336 -416 0
-336 -417 0
-336 -418 0
-336 -419 0
-337 -341 0
-337 -342 0
-337 -343 0
-337 -344 0
-337 -345 0
-337 -346 0
-337 -347 0
-337 -349 0
-337 -350 0
-337 -412 0
-337 -413 0
-337 -414 0
-337 -415 0
-337 -416 0
-337 -417 0
-337 -418 0
-337 -419 0
-337 -420 0
-338 -341 0
-338 -343 0
-338 -344 0
-338 -346 0
-338 -347 0
-338 -348 0
-338 -349 0
-338 -350 0
-338 -411 0
-338 -413 0
-338 -414 0
-338 -416 0
-338 -417 0
-338 -418 0
-338 -419 0
-338 -420 0
-339 -341 0
-339 -342 0
-339 -343 0
-339 -344 0
-339 -345 0
-339 -346 0
-339 -347 0
-339 -348 0
-339 -349 0
-339 -411 0
-339 -412 0
-339 -413 0
-339 -415 0
-339 -416 0
-339 -417 0
-339 -418 0
-339 -419 0
-340 -342 0
-340 -343 0
-340 -344 0
-340 -345 0
-340 -346 0
-340 -347 0
-340 -348 0
-340 -349 0
-340 -350 0
-340 -412 0
-340 -413 0
-340 -414 0
-340 -415 0
-340 -416 0
-340 -417 0
-340 -418 0
-340 -419 0
-340 -420 0
-341 -351 0
-341 -353 0
-341 -354 0
-341 -356 0
-341 -357 0
-341 -358 0
-341 -359 0
-341 -360 0
-341 -421 0
-341 -423 0
-341 -424 0
-341 -426 0
-341 -427 0
-341 -428 0
-341 -429 0
-341 -430 0
-342 -351 0
-342 -352 0
-342 -354 0
-342 -355 0
-342 -356 0
-342 -357 0
-342 -358 0
-342 -359 0
-342 -360 0
-342 -421 0
-342 -422 0
-342 -423 0
-342 -424 0
-342 -425 0
-342 -427 0
-342 -428 0
-342 -429 0
-342 -430 0
-343 -351 0
-343 -352 0
-343 -353 0
-343 -355 0
-343 -356 0
-343 -357 0
-343 -358 0
-343 -359 0
-343 -360 0
-343 -421 0
-343 -422 0
-343 -423 0
-343 -424 0
-343 -425 0
-343 -426 0
-343 -428 0
-343 -429 0
-343 -430 0
-344 -352 0
-344 -353 0
-344 -354 0
-344 -355 0
-344 -356 0
-344 -357 0
-344 -358 0
-344 -359 0
-344 -360 0
-344 -421 0
-344 -422 0
-344 -423 0
-344 -424 0
-344 -425 0
-344 -426 0
-344 -427 0
-344 -429 0
-344 -430 0
-345 -351 0
-345 -352 0
-345 -353 0
-345 -354 0
-345 -355 0
-345 -357 0
-345 -358 0
-345 -360 0
-345 -421 0
-345 -422 0
-345 -424 0
-345 -425 0
-345 -426 0
-345 -427 0
-345 -428 0
-345 -430 0
-346 -351 0
-346 -352 0
-346 -353 0
-346 -354 0
-346 -355 0
-346 -356 0
-346 -358 0
-346 -359 0
-346 -360 0
-346 -421 0
-346 -422 0
-346 -423 0
-346 -425 0
-346 -426 0
-346 -427 0
-346 -428 0
-346 -429 0
-347 -351 0
-347 -352 0
-347 -353 0
-347 -354 0
-347 -355 0
-347 -356 0
-347 -357 0
-347 -359 0
-347 -360 0
-347 -422 0
-347 -423 0
-347 -424 0
-347 -425 0
-347 -426 0
-347 -427 0
-347 -428 0
-347 -429 0
-347 -430 0
-348 -351 0
-348 -353 0
-348 -354 0
-348 -356 0
-348 -357 0
-348 -358 0
-348 -359 0
-348 -360 0
-348 -421 0
-348 -423 0
-348 -424 0
-348 -426 0
-348 -427 0
-348 -428 0
-348 -429 0
-348 -430 0
-349 -351 0
-349 -352 0
-349 -353 0
-349 -354 0
-349 -355 0
-349 -356 0
-349 -357 0
-349 -358 0
-349 -359 0
-349 -421 0
-349 -422 0
-349 -423 0
-349 -425 0
-349 -426 0
-349 -427 0
-349 -428 0
-349 -429 0
-350 -352 0
-350 -353 0
-350 -354 0
-350 -355 0
-350 -356 0
-350 -357 0
-350 -358 0
-350 -359 0
-350 -360 0
-350 -422 0
-350 -423 0
-350 -424 0
-350 -425 0
-350 -426 0
-350 -427 0
-350 -428 0
-350 -429 0
-350 -430 0
-351 -361 0
-351 -363 0
-351 -364 0
-351 -366 0
-351 -367 0
-351 -368 0
-351 -369 0
-351 -370 0
-351 -431 0
-351 -433 0
-351 -434 0
-351 -436 0
-351 -437 0
-351 -438 0
-351 -439 0
-351 -440 0
-352 -361 0
-352 -362 0
-352 -364 0
-352 -365 0
-352 -366 0
-352 -367 0
-352 -368 0
-352 -369 0
-352 -370 0
-352 -431 0
-352 -432 0
-352 -433 0
-352 -434 0
-352 -435 0
-352 -437 0
-352 -438 0
-352 -439 0
-352 -440 0
-353 -361 0
-353 -362 0
-353 -363 0
-353 -365 0
-353 -366 0
-353 -367 0
-353 -368 0
-353 -369 0
-353 -370 0
-353 -431 0
-353 -432 0
-353 -433 0
-353 -434 0
-353 -435 0
-353 -436 0
-353 -438 0
-353 -439 0
-353 -440 0
-354 -362 0
-354 -363 0
-354 -364 0
-354 -365 0
-354 -366 0
-354 -367 0
-354 -368 0
-354 -369 0
-354 -370 0
-354 -431 0
-354 -432 0
-354 -433 0
-354 -434 0
-354 -435 0
-354 -436 0
-354 -437 0
-354 -439 0
-354 -440 0
-355 -361 0
-355 -362 0
-355 -363 0
-355 -364 0
-355 -365 0
-355 -367 0
-355 -368 0
-355 -370 0
-355 -431 0
-355 -432 0
-355 -434 0
-355 -435 0
-355 -436 0
-355 -437 0
-355 -438 0
-355 -440 0
-356 -361 0
-356 -362 0
-356 -363 0
-356 -364 0
-356 -365 0
-356 -366 0
-356 -368 0
-356 -369 0
-356 -370 0
-356 -431 0
-356 -432 0
-356 -433 0
-356 -435 0
-356 -436 0
-356 -437 0
-356 -438 0
-356 -439 0
-357 -361 0
-357 -362 0
-357 -363 0
-357 -364 0
-357 -365 0
-357 -366 0
-357 -367 0
-357 -369 0
-357 -370 0
-357 -432 0
-357 -433 0
-357 -434 0
-357 -435 0
-357 -436 0
-357 -437 0
-357 -438 0
-357 -439 0
-357 -440 0
-358 -361 0
-358 -363 0
-358 -364 0
-358 -366 0
-358 -367 0
-358 -368 0
-358 -369 0
-358 -370 0
-358 -431 0
-358 -433 0
-358 -434 0
-358 -436 0
-358 -437 0
-358 -438 0
-358 -439 0
-358 -440 0
-359 -361 0
-359 -362 0
-359 -363 0
-359 -364 0
-359 -365 0
-359 -366 0
-359 -367 0
-359 -368 0
-359 -369 0
-359 -431 0
-359 -432 0
-359 -433 0
-359 -435 0
-359 -436 0
-359 -437 0
-359 -438 0
-359 -439 0
-360 -362 0
-360 -363 0
-360 -364 0
-360 -365 0
-360 -366 0
-360 -367 0
-360 -368 0
-360 -369 0
-360 -370 0
-360 -432 0
-360 -433 0
-360 -434 0
-360 -435 0
-360 -436 0
-360 -437 0
-360 -438 0
-360 -439 0
-360 -440 0
-361 -371 0
-361 -373 0
-361 -374 0
-361 -376 0
-361 -377 0
-361 -378 0
-361 -379 0
-361 -380 0
-361 -441 0
-361 -443 0
-361 -444 0
-361 -446 0
-361 -447 0
-361 -448 0
-361 -449 0
-361 -450 0
-362 -371 0
-362 -372 0
-362 -374 0
-362 -375 0
-362 -376 0
-362 -377 0
-362 -378 0
-362 -379 0
-362 -380 0
-362 -441 0
-362 -442 0
-362 -443 0
-362 -444 0
-362 -445 0
-362 -447 0
-362 -448 0
-362 -449 0
-362 -450 0
-363 -371 0
-363 -372 0
-363 -373 0
-363 -375 0
-363 -376 0
-363 -377 0
-363 -378 0
-363 -379 0
-363 -380 0
-363 -441 0
-363 -442 0
-363 -443 0
-363 -444 0
-363 -445 0
-363 -446 0
-363 -448 0
-363 -449 0
-363 -450 0
-364 -372 0
-364 -373 0
-364 -374 0
-364 -375 0
-364 -376 0
-364 -377 0
-364 -378 0
-364 -379 0
-364 -380 0
-364 -441 0
-364 -442 0
-364 -443 0
-364 -444 0
-364 -445 0
-364 -446 0
-364 -447 0
-364 -449 0
-364 -450 0
-365 -371 0
-365 -372 0
-365 -373 0
-365 -374 0
-365 -375 0
-365 -377 0
-365 -378 0
-365 -380 0
-365 -441 0
-365 -442 0
-365 -444 0
-365 -445 0
-365 -446 0
-365 -447 0
-365 -448 0
-365 -450 0
-366 -371 0
-366 -372 0
-366 -373 0
-366 -374 0
-366 -375 0
-366 -376 0
-366 -378 0
-366 -379 0
-366 -380 0
-366 -441 0
-366 -442 0
-366 -443 0
-366 -445 0
-366 -446 0
-366 -447 0
-366 -448 0
-366 -449 0
-367 -371 0
-367 -372 0
-367 -373 0
-367 -374 0
-367 -375 0
-367 -376 0
-367 -377 0
-367 -379 0
-367 -380 0
-367 -442 0
-367 -443 0
-367 -444 0
-367 -445 0
-367 -446 0
-367 -447 0
-367 -448 0
-367 -449 0
-367 -450 0
-368 -371 0
-368 -373 0
-368 -374 0
-368 -376 0
-368 -377 0
-368 -378 0
-368 -379 0
-368 -380 0
-368 -441 0
-368 -443 0
-368 -444 0
-368 -446 0
-368 -447 0
-368 -448 0
-368 -449 0
-368 -450 0
-369 -371 0
-369 -372 0
-369 -373 0
-369 -374 0
-369 -375 0
-369 -376 0
-369 -377 0
-369 -378 0
-369 -379 0
-369 -441 0
-369 -442 0
-369 -443 0
-369 -445 0
-369 -446 0
-369 -447 0
-369 -448 0
-369 -449 0
-370 -372 0
-370 -373 0
-370 -374 0
-370 -375 0
-370 -376 0
-370 -377 0
-370 -378 0
-370 -379 0
-370 -380 0
-370 -442 0
-370 -443 0
-370 -444 0
-370 -445 0
-370 -446 0
-370 -447 0
-370 -448 0
-370 -449 0
-370 -450 0
-371 -381 0
-371 -383 0
-371 -384 0
-371 -386 0
-371 -387 0
-371 -388 0
-371 -389 0
-371 -390 0
-371 -451 0
-371 -453 0
-371 -454 0
-371 -456 0
-371 -457 0
-371 -458 0
-371 -459 0
-371 -460 0
-372 -381 0
-372 -382 0
-372 -384 0
-372 -385 0
-372 -386 0
-372 -387 0
-372 -388 0
-372 -389 0
-372 -390 0
-372 -451 0
-372 -452 0
-372 -453 0
-372 -454 0
-372 -455 0
-372 -457 0
-372 -458 0
-372 -459 0
-372 -460 0
-373 -381 0
-373 -382 0
-373 -383 0
-373 -385 0
-373 -386 0
-373 -387 0
-373 -388 0
-373 -389 0
-373 -390 0
-373 -451 0
-373 -452 0
-373 -453 0
-373 -454 0
-373 -455 0
-373 -456 0
-373 -458 0
-373 -459 0
-373 -460 0
-374 -382 0
-374 -383 0
-374 -384 0
-374 -385 0
-374 -386 0
-374 -387 0
-374 -388 0
-374 -389 0
-374 -390 0
-374 -451 0
-374 -452 0
-374 -453 0
-374 -454 0
-374 -455 0
-374 -456 0
-374 -457 0
-374 -459 0
-374 -460 0
-375 -381 0
-375 -382 0
-375 -383 0
-375 -384 0
-375 -385 0
-375 -387 0
-375 -388 0
-375 -390 0
-375 -451 0
-375 -452 0
-375 -454 0
-375 -455 0
-375 -456 0
-375 -457 0
-375 -458 0
-375 -460 0
-376 -381 0
-376 -382 0
-376 -383 0
-376 -384 0
-376 -385 0
-376 -386 0
-376 -388 0
-376 -389 0
-376 -390 0
-376 -451 0
-376 -452 0
-376 -453 0
-376 -455 0
-376 -456 0
-376 -457 0
-376 -458 0
-376 -459 0
-377 -381 0
-377 -382 0
-377 -383 0
-377 -384 0
-377 -385 0
-377 -386 0
-377 -387 0
-377 -389 0
-377 -390 0
-377 -452 0
-377 -453 0
-377 -454 0
-377 -455 0
-377 -456 0
-377 -457 0
-377 -458 0
-377 -459 0
-377 -460 0
-378 -381 0
-378 -383 0
-378 -384 0
-378 -386 0
-378 -387 0
-378 -388 0
-378 -389 0
-378 -390 0
-378 -451 0
-378 -453 0
-378 -454 0
-378 -456 0
-378 -457 0
-378 -458 0
-378 -459 0
-378 -460 0
-379 -381 0
-379 -382 0
-379 -383 0
-379 -384 0
-379 -385 0
-379 -386 0
-379 -387 0
-379 -388 0
-379 -389 0
-379 -451 0
-379 -452 0
-379 -453 0
-379 -455 0
-379 -456 0
-379 -457 0
-379 -458 0
-379 -459 0
-380 -382 0
-380 -383 0
-380 -384 0
-380 -385 0
-380 -386 0
-380 -387 0
-380 -388 0
-380 -389 0
-380 -390 0
-380 -452 0
-380 -453 0
-380 -454 0
-380 -455 0
-380 -456 0
-380 -457 0
-380 -458 0
-380 -459 0
-380 -460 0
-381 -391 0
-381 -393 0
-381 -394 0
-381 -396 0
-381 -397 0
-381 -398 0
-381 -399 0
-381 -400 0
-381 -461 0
-381 -463 0
-381 -464 0
-381 -466 0
-381 -467 0
-381 -468 0
-381 -469 0
-381 -470 0
-382 -391 0
-382 -392 0
-382 -394 0
-382 -395 0
-382 -396 0
-382 -397 0
-382 -398 0
-382 -399 0
-382 -400 0
-382 -461 0
-382 -462 0
-382 -463 0
-382 -464 0
-382 -465 0
-382 -467 0
-382 -468 0
-382 -469 0
-382 -470 0
-383 -391 0
-383 -392 0
-383 -393 0
-383 -395 0
-383 -396 0
-383 -397 0
-383 -398 0
-383 -399 0
-383 -400 0
-383 -461 0
-383 -462 0
-383 -463 0
-383 -464 0
-383 -465 0
-383 -466 0
-383 -468 0
-383 -469 0
-383 -470 0
-384 -392 0
-384 -393 0
-384 -394 0
-384 -395 0
-384 -396 0
-384 -397 0
-384 -398 0
-384 -399 0
-384 -400 0
-384 -461 0
-384 -462 0
-384 -463 0
-384 -464 0
-384 -465 0
-384 -466 0
-384 -467 0
-384 -469 0
-384 -470 0
-385 -391 0
-385 -392 0
-385 -393 0
-385 -394 0
-385 -395 0
-385 -397 0
-385 -398 0
-385 -400 0
-385 -461 0
-385 -462 0
-385 -464 0
-385 -465 0
-385 -466 0
-385 -467 0
-385 -468 0
-385 -470 0
-386 -391 0
-386 -392 0
-386 -393 0
-386 -394 0
-386 -395 0
-386 -396 0
-386 -398 0
-386 -399 0
-386 -400 0
-386 -461 0
-386 -462 0
-386 -463 0
-386 -465 0
-386 -466 0
-386 -467 0
-386 -468 0
-386 -469 0
-387 -391 0
-387 -392 0
-387 -393 0
-387 -394 0
-387 -395 0
-387 -396 0
-387 -397 0
-387 -399 0
-387 -400 0
-387 -462 0
-387 -463 0
-387 -464 0
-387 -465 0
-387 -466 0
-387 -467 0
-387 -468 0
-387 -469 0
-387 -470 0
-388 -391 0
-388 -393 0
-388 -394 0
-388 -396 0
-388 -397 0
-388 -398 0
-388 -399 0
-388 -400 0
-388 -461 0
-388 -463 0
-388 -464 0
-388 -466 0
-388 -467 0
-388 -468 0
-388 -469 0
-388 -470 0
-389 -391 0
-389 -392 0
-389 -393 0
-389 -394 0
-389 -395 0
-389 -396 0
-389 -397 0
-389 -398 0
-389 -399 0
-389 -461 0
-389 -462 0
-389 -463 0
-389 -465 0
-389 -466 0
-389 -467 0
-389 -468 0
-389 -469 0
-390 -392 0
-390 -393 0
-390 -394 0
-390 -395 0
-390 -396 0
-390 -397 0
-390 -398 0
-390 -399 0
-390 -400 0
-390 -462 0
-390 -463 0
-390 -464 0
-390 -465 0
-390 -466 0
-390 -467 0
-390 -468 0
-390 -469 0
-390 -470 0
-391 -471 0
-391 -473 0
-391 -474 0
-391 -476 0
-391 -477 0
-391 -478 0
-391 -479 0
-391 -480 0
-392 -471 0
-392 -472 0
-392 -473 0
-392 -474 0
-392 -475 0
-392 -477 0
-392 -478 0
-392 -479 0
-392 -480 0
-393 -471 0
-393 -472 0
-393 -473 0
-393 -474 0
-393 -475 0
-393 -476 0
-393 -478 0
-393 -479 0
-393 -480 0
-394 -471 0
-394 -472 0
-394 -473 0
-394 -474 0
-394 -475 0
-394 -476 0
-394 -477 0
-394 -479 0
-394 -480 0
-395 -471 0
-395 -472 0
-395 -474 0
-395 -475 0
-395 -476 0
-395 -477 0
-395 -478 0
-395 -480 0
-396 -471 0
-396 -472 0
-396 -473 0
-396 -475 0
-396 -476 0
-396 -477 0
-396 -478 0
-396 -479 0
-397 -472 0
-397 -473 0
-397 -474 0
-397 -475 0
-397 -476 0
-397 -477 0
-397 -478 0
-397 -479 0
-397 -480 0
-398 -471 0
-398 -473 0
-398 -474 0
-398 -476 0
-398 -477 0
-398 -478 0
-398 -479 0
-398 -480 0
-399 -471 0
-399 -472 0
-399 -473 0
-399 -475 0
-399 -476 0
-399 -477 0
-399 -478 0
-399 -479 0
-400 -472 0
-400 -473 0
-400 -474 0
-400 -475 0
-400 -476 0
-400 -477 0
-400 -478 0
-400 -479 0
-400 -480 0
-401 -411 0
-401 -413 0
-401 -414 0
-401 -416 0
-401 -417 0
-401 -418 0
-401 -419 0
-401 -420 0
-401 -481 0
-401 -483 0
-401 -484 0
-401 -486 0
-401 -487 0
-401 -488 0
-401 -489 0
-401 -490 0
-402 -411 0
-402 -412 0
-402 -414 0
-402 -415 0
-402 -416 0
-402 -417 0
-402 -418 0
-402 -419 0
-402 -420 0
-402 -481 0
-402 -482 0
-402 -483 0
-402 -484 0
-402 -485 0
-402 -487 0
-402 -488 0
-402 -489 0
-402 -490 0
-403 -411 0
-403 -412 0
-403 -413 0
-403 -415 0
-403 -416 0
-403 -417 0
-403 -418 0
-403 -419 0
-403 -420 0
-403 -481 0
-403 -482 0
-403 -483 0
-403 -484 0
-403 -485 0
-403 -486 0
-403 -488 0
-403 -489 0
-403 -490 0
-404 -412 0
-404 -413 0
-404 -414 0
-404 -415 0
-404 -416 0
-404 -417 0
-404 -418 0
-404 -419 0
-404 -420 0
-404 -481 0
-404 -482 0
-404 -483 0
-404 -484 0
-404 -485 0
-404 -486 0
-404 -487 0
-404 -489 0
-404 -490 0
-405 -411 0
-405 -412 0
-405 -413 0
-405 -414 0
-405 -415 0
-405 -417 0
-405 -418 0
-405 -420 0
-405 -481 0
-405 -482 0
-405 -484 0
-405 -485 0
-405 -486 0
-405 -487 0
-405 -488 0
-405 -490 0
-406 -411 0
-406 -412 0
-406 -413 0
-406 -414 0
-406 -415 0
-406 -416 0
-406 -418 0
-406 -419 0
-406 -420 0
-406 -481 0
-406 -482 0
-406 -483 0
-406 -485 0
-406 -486 0
-406 -487 0
-406 -488 0
-406 -489 0
-407 -411 0
-407 -412 0
-407 -413 0
-407 -414 0
-407 -415 0
-407 -416 0
-407 -417 0
-407 -419 0
-407 -420 0
-407 -482 0
-407 -483 0
-407 -484 0
-407 -485 0
-407 -486 0
-407 -487 0
-407 -488 0
-407 -489 0
-407 -490 0
-408 -411 0
-408 -413 0
-408 -414 0
-408 -416 0
-408 -417 0
-408 -418 0
-408 -419 0
-408 -420 0
-408 -481 0
-408 -483 0
-408 -484 0
-408 -486 0
-408 -487 0
-408 -488 0
-408 -489 0
-408 -490 0
-409 -411 0
-409 -412 0
-409 -413 0
-409 -414 0
-409 -415 0
-409 -416 0
-409 -417 0
-409 -418 0
-409 -419 0
-409 -481 0
-409 -482 0
-409 -483 0
-409 -485 0
-409 -486 0
-409 -487 0
-409 -488 0
-409 -489 0
-410 -412 0
-410 -413 0
-410 -414 0
-410 -415 0
-410 -416 0
-410 -417 0
-410 -418 0
-410 -419 0
-410 -420 0
-410 -482 0
-410 -483 0
-410 -484 0
-410 -485 0
-410 -486 0
-410 -487 0
-410 -488 0
-410 -489 0
-410 -490 0
-411 -421 0
-411 -423 0
-411 -424 0
-411 -426 0
-411 -427 0
-411 -428 0
-411 -429 0
-411 -430 0
-411 -491 0
-411 -493 0
-411 -494 0
-411 -496 0
-411 -497 0
-411 -498 0
-411 -499 0
-411 -500 0
-412 -421 0
-412 -422 0
-412 -424 0
-412 -425 0
-412 -426 0
-412 -427 0
-412 -428 0
-412 -429 0
-412 -430 0
-412 -491 0
-412 -492 0
-412 -493 0
-412 -494 0
-412 -495 0
-412 -497 0
-412 -498 0
-412 -499 0
-412 -500 0
-413 -421 0
-413 -422 0
-413 -423 0
-413 -425 0
-413 -426 0
-413 -427 0
-413 -428 0
-413 -429 0
-413 -430 0
-413 -491 0
-413 -492 0
-413 -493 0
-413 -494 0
-413 -495 0
-413 -496 0
-413 -498 0
-413 -499 0
-413 -500 0
-414 -422 0
-414 -423 0
-414 -424 0
-414 -425 0
-414 -426 0
-414 -427 0
-414 -428 0
-414 -429 0
-414 -430 0
-414 -491 0
-414 -492 0
-414 -493 0
-414 -494 0
-414 -495 0
-414 -496 0
-414 -497 0
-414 -499 0
-414 -500 0
-415 -421 0
-415 -422 0
-415 -423 0
-415 -424 0
-415 -425 0
-415 -427 0
-415 -428 0
-415 -430 0
-415 -491 0
-415 -492 0
-415 -494 0
-415 -495 0
-415 -496 0
-415 -497 0
-415 -498 0
-415 -500 0
-416 -421 0
-416 -422 0
-416 -423 0
-416 -424 0
-416 -425 0
-416 -426 0
-416 -428 0
-416 -429 0
-416 -430 0
-416 -491 0
-416 -492 0
-416 -493 0
-416 -495 0
-416 -496 0
-416 -497 0
-416 -498 0
-416 -499 0
-417 -421 0
-417 -422 0
-417 -423 0
-417 -424 0
-417 -425 0
-417 -426 0
-417 -427 0
-417 -429 0
-417 -430 0
-417 -492 0
-417 -493 0
-417 -494 0
-417 -495 0
-417 -496 0
-417 -497 0
-417 -498 0
-417 -499 0
-417 -500 0
-418 -421 0
-418 -423 0
-418 -424 0
-418 -426 0
-418 -427 0
-418 -428 0
-418 -429 0
-418 -430 0
-418 -491 0
-418 -493 0
-418 -494 0
-418 -496 0
-418 -497 0
-418 -498 0
-418 -499 0
-418 -500 0
-419 -421 0
-419 -422 0
-419 -423 0
-419 -424 0
-419 -425 0
-419 -426 0
-419 -427 0
-419 -428 0
-419 -429 0
-419 -491 0
-419 -492 0
-419 -493 0
-419 -495 0
-419 -496 0
-419 -497 0
-419 -498 0
-419 -499 0
-420 -422 0
-420 -423 0
-420 -424 0
-420 -425 0
-420 -426 0
-420 -427 0
-420 -428 0
-420 -429 0
-420 -430 0
-420 -492 0
-420 -493 0
-420 -494 0
-420 -495 0
-420 -496 0
-420 -497 0
-420 -498 0
-420 -499 0
-420 -500 0
-421 -431 0
-421 -433 0
-421 -434 0
-421 -436 0
-421 -437 0
-421 -438 0
-421 -439 0
-421 -440 0
-421 -501 0
-421 -503 0
-421 -504 0
-421 -506 0
-421 -507 0
-421 -508 0
-421 -509 0
-421 -510 0
-422 -431 0
-422 -432 0
-422 -434 0
-422 -435 0
-422 -436 0
-422 -437 0
-422 -438 0
-422 -439 0
-422 -440 0
-422 -501 0
-422 -502 0
-422 -503 0
-422 -504 0
-422 -505 0
-422 -507 0
-422 -508 0
-422 -509 0
-422 -510 0
-423 -431 0
-423 -432 0
-423 -433 0
-423 -435 0
-423 -436 0
-423 -437 0
-423 -438 0
-423 -439 0
-423 -440 0
-423 -501 0
-423 -502 0
-423 -503 0
-423 -504 0
-423 -505 0
-423 -506 0
-423 -508 0
-423 -509 0
-423 -510 0
-424 -432 0
-424 -433 0
-424 -434 0
-424 -435 0
-424 -436 0
-424 -437 0
-424 -438 0
-424 -439 0
-424 -440 0
-424 -501 0
-424 -502 0
-424 -503 0
-424 -504 0
-424 -505 0
-424 -506 0
-424 -507 0
-424 -509 0
-424 -510 0
-425 -431 0
-425 -432 0
-425 -433 0
-425 -434 0
-425 -435 0
-425 -437 0
-425 -438 0
-425 -440 0
-425 -501 0
-425 -502 0
-425 -504 0
-425 -505 0
-425 -506 0
-425 -507 0
-425 -508 0
-425 -510 0
-426 -431 0
-426 -432 0
-426 -433 0
-426 -434 0
-426 -435 0
-426 -436 0
-426 -438 0
-426 -439 0
-426 -440 0
-426 -501 0
-426 -502 0
-426 -503 0
-426 -505 0
-426 -506 0
-426 -507 0
-426 -508 0
-426 -509 0
-427 -431 0
-427 -432 0
-427 -433 0
-427 -434 0
-427 -435 0
-427 -436 0
-427 -437 0
-427 -439 0
-427 -440 0
-427 -502 0
-427 -503 0
-427 -504 0
-427 -505 0
-427 -506 0
-427 -507 0
-427 -508 0
-427 -509 0
-427 -510 0
-428 -431 0
-428 -433 0
-428 -434 0
-428 -436 0
-428 -437 0
-428 -438 0
-428 -439 0
-428 -440 0
-428 -501 0
-428 -503 0
-428 -504 0
-428 -506 0
-428 -507 0
-428 -508 0
-428 -509 0
-428 -510 0
-429 -431 0
-429 -432 0
-429 -433 0
-429 -434 0
-429 -435 0
-429 -436 0
-429 -437 0
-429 -438 0
-429 -439 0
-429 -501 0
-429 -502 0
-429 -503 0
-429 -505 0
-429 -506 0
-429 -507 0
-429 -508 0
-429 -509 0
-430 -432 0
-430 -433 0
-430 -434 0
-430 -435 0
-430 -436 0
-430 -437 0
-430 -438 0
-430 -439 0
-430 -440 0
-430 -502 0
-430 -503 0
-430 -504 0
-430 -505 0
-430 -506 0
-430 -507 0
-430 -508 0
-430 -509 0
-430 -510 0
-431 -441 0
-431 -443 0
-431 -444 0
-431 -446 0
-431 -447 0
-431 -448 0
-431 -449 0
-431 -450 0
-431 -511 0
-431 -513 0
-431 -514 0
-431 -516 0
-431 -517 0
-431 -518 0
-431 -519 0
-431 -520 0
-432 -441 0
-432 -442 0
-432 -444 0
-432 -445 0
-432 -446 0
-432 -447 0
-432 -448 0
-432 -449 0
-432 -450 0
-432 -511 0
-432 -512 0
-432 -513 0
-432 -514 0
-432 -515 0
-432 -517 0
-432 -518 0
-432 -519 0
-432 -520 0
-433 -441 0
-433 -442 0
-433 -443 0
-433 -445 0
-433 -446 0
-433 -447 0
-433 -448 0
-433 -449 0
-433 -450 0
-433 -511 0
-433 -512 0
-433 -513 0
-433 -514 0
-433 -515 0
-433 -516 0
-433 -518 0
-433 -519 0
-433 -520 0
-434 -442 0
-434 -443 0
-434 -444 0
-434 -445 0
-434 -446 0
-434 -447 0
-434 -448 0
-434 -449 0
-434 -450 0
-434 -511 0
-434 -512 0
-434 -513 0
-434 -514 0
-434 -515 0
-434 -516 0
-434 -517 0
-434 -519 0
-434 -520 0
-435 -441 0
-435 -442 0
-435 -443 0
-435 -444 0
-435 -445 0
-435 -447 0
-435 -448 0
-435 -450 0
-435 -511 0
-435 -512 0
-435 -514 0
-435 -515 0
-435 -516 0
-435 -517 0
-435 -518 0
-435 -520 0
-436 -441 0
-436 -442 0
-436 -443 0
-436 -444 0
-436 -445 0
-436 -446 0
-436 -448 0
-436 -449 0
-436 -450 0
-436 -511 0
-436 -512 0
-436 -513 0
-436 -515 0
-436 -516 0
-436 -517 0
-436 -518 0
-436 -519 0
-437 -441 0
-437 -442 0
-437 -443 0
-437 -444 0
-437 -445 0
-437 -446 0
-437 -447 0
-437 -449 0
-437 -450 0
-437 -512 0
-437 -513 0
-437 -514 0
-437 -515 0
-437 -516 0
-437 -517 0
-437 -518 0
-437 -519 0
-437 -520 0
-438 -441 0
-438 -443 0
-438 -444 0
-438 -446 0
-438 -447 0
-438 -448 0
-438 -449 0
-438 -450 0
-438 -511 0
-438 -513 0
-438 -514 0
-438 -516 0
-438 -517 0
-438 -518 0
-438 -519 0
-438 -520 0
-439 -441 0
-439 -442 0
-439 -443 0
-439 -444 0
-439 -445 0
-439 -446 0
-439 -447 0
-439 -448 0
-439 -449 0
-439 -511 0
-439 -512 0
-439 -513 0
-439 -515 0
-439 -516 0
-439 -517 0
-439 -518 0
-439 -519 0
-440 -442 0
-440 -443 0
-440 -444 0
-440 -445 0
-440 -446 0
-440 -447 0
-440 -448 0
-440 -449 0
-440 -450 0
-440 -512 0
-440 -513 0
-440 -514 0
-440 -515 0
-440 -516 0
-440 -517 0
-440 -518 0
-440 -519 0
-440 -520 0
-441 -451 0
-441 -453 0
-441 -454 0
-441 -456 0
-441 -457 0
-441 -458 0
-441 -459 0
-441 -460 0
-441 -521 0
-441 -523 0
-441 -524 0
-441 -526 0
-441 -527 0
-441 -528 0
-441 -529 0
-441 -530 0
-442 -451 0
-442 -452 0
-442 -454 0
-442 -455 0
-442 -456 0
-442 -457 0
-442 -458 0
-442 -459 0
-442 -460 0
-442 -521 0
-442 -522 0
-442 -523 0
-442 -524 0
-442 -525 0
-442 -527 0
-442 -528 0
-442 -529 0
-442 -530 0
-443 -451 0
-443 -452 0
-443 -453 0
-443 -455 0
-443 -456 0
-443 -457 0
-443 -458 0
-443 -459 0
-443 -460 0
-443 -521 0
-443 -522 0
-443 -523 0
-443 -524 0
-443 -525 0
-443 -526 0
-443 -528 0
-443 -529 0
-443 -530 0
-444 -452 0
-444 -453 0
-444 -454 0
-444 -455 0
-444 -456 0
-444 -457 0
-444 -458 0
-444 -459 0
-444 -460 0
-444 -521 0
-444 -522 0
-444 -523 0
-444 -524 0
-444 -525 0
-444 -526 0
-444 -527 0
-444 -529 0
-444 -530 0
-445 -451 0
-445 -452 0
-445 -453 0
-445 -454 0
-445 -455 0
-445 -457 0
-445 -458 0
-445 -460 0
-445 -521 0
-445 -522 0
-445 -524 0
-445 -525 0
-445 -526 0
-445 -527 0
-445 -528 0
-445 -530 0
-446 -451 0
-446 -452 0
-446 -453 0
-446 -454 0
-446 -455 0
-446 -456 0
-446 -458 0
-446 -459 0
-446 -460 0
-446 -521 0
-446 -522 0
-446 -523 0
-446 -525 0
-446 -526 0
-446 -527 0
-446 -528 0
-446 -529 0
-447 -451 0
-447 -452 0
-447 -453 0
-447 -454 0
-447 -455 0
-447 -456 0
-447 -457 0
-447 -459 0
-447 -460 0
-447 -522 0
-447 -523 0
-447 -524 0
-447 -525 0
-447 -526 0
-447 -527 0
-447 -528 0
-447 -529 0
-447 -530 0
-448 -451 0
-448 -453 0
-448 -454 0
-448 -456 0
-448 -457 0
-448 -458 0
-448 -459 0
-448 -460 0
-448 -521 0
-448 -523 0
-448 -524 0
-448 -526 0
-448 -527 0
-448 -528 0
-448 -529 0
-448 -530 0
-449 -451 0
-449 -452 0
-449 -453 0
-449 -454 0
-449 -455 0
-449 -456 0
-449 -457 0
-449 -458 0
-449 -459 0
-449 -521 0
-449 -522 0
-449 -523 0
-449 -525 0
-449 -526 0
-449 -527 0
-449 -528 0
-449 -529 0
-450 -452 0
-450 -453 0
-450 -454 0
-450 -455 0
-450 -456 0
-450 -457 0
-450 -458 0
-450 -459 0
-450 -460 0
-450 -522 0
-450 -523 0
-450 -524 0
-450 -525 0
-450 -526 0
-450 -527 0
-450 -528 0
-450 -529 0
-450 -530 0
-451 -461 0
-451 -463 0
-451 -464 0
-451 -466 0
-451 -467 0
-451 -468 0
-451 -469 0
-451 -470 0
-451 -531 0
-451 -533 0
-451 -534 0
-451 -536 0
-451 -537 0
-451 -538 0
-451 -539 0
-451 -540 0
-452 -461 0
-452 -462 0
-452 -464 0
-452 -465 0
-452 -466 0
-452 -467 0
-452 -468 0
-452 -469 0
-452 -470 0
-452 -531 0
-452 -532 0
-452 -533 0
-452 -534 0
-452 -535 0
-452 -537 0
-452 -538 0
-452 -539 0
-452 -540 0
-453 -461 0
-453 -462 0
-453 -463 0
-453 -465 0
-453 -466 0
-453 -467 0
-453 -468 0
-453 -469 0
-453 -470 0
-453 -531 0
-453 -532 0
-453 -533 0
-453 -534 0
-453 -535 0
-453 -536 0
-453 -538 0
-453 -539 0
-453 -540 0
-454 -462 0
-454 -463 0
-454 -464 0
-454 -465 0
-454 -466 0
-454 -467 0
-454 -468 0
-454 -469 0
-454 -470 0
-454 -531 0
-454 -532 0
-454 -533 0
-454 -534 0
-454 -535 0
-454 -536 0
-454 -537 0
-454 -539 0
-454 -540 0
-455 -461 0
-455 -462 0
-455 -463 0
-455 -464 0
-455 -465 0
-455 -467 0
-455 -468 0
-455 -470 0
-455 -531 0
-455 -532 0
-455 -534 0
-455 -535 0
-455 -536 0
-455 -537 0
-455 -538 0
-455 -540 0
-456 -461 0
-456 -462 0
-456 -463 0
-456 -464 0
-456 -465 0
-456 -466 0
-456 -468 0
-456 -469 0
-456 -470 0
-456 -531 0
-456 -532 0
-456 -533 0
-456 -535 0
-456 -536 0
-456 -537 0
-456 -538 0
-456 -539 0
-457 -461 0
-457 -462 0
-457 -463 0
-457 -464 0
-457 -465 0
-457 -466 0
-457 -467 0
-457 -469 0
-457 -470 0
-457 -532 0
-457 -533 0
-457 -534 0
-457 -535 0
-457 -536 0
-457 -537 0
-457 -538 0
-457 -539 0
-457 -540 0
-458 -461 0
-458 -463 0
-458 -464 0
-458 -466 0
-458 -467 0
-458 -468 0
-458 -469 0
-458 -470 0
-458 -531 0
-458 -533 0
-458 -534 0
-458 -536 0
-458 -537 0
-458 -538 0
-458 -539 0
-458 -540 0
-459 -461 0
-459 -462 0
-459 -463 0
-459 -464 0
-459 -465 0
-459 -466 0
-459 -467 0
-459 -468 0
-459 -469 0
-459 -531 0
-459 -532 0
-459 -533 0
-459 -535 0
-459 -536 0
-459 -537 0
-459 -538 0
-459 -539 0
-460 -462 0
-460 -463 0
-460 -464 0
-460 -465 0
-460 -466 0
-460 -467 0
-460 -468 0
-460 -469 0
-460 -470 0
-460 -532 0
-460 -533 0
-460 -534 0
-460 -535 0
-460 -536 0
-460 -537 0
-460 -538 0
-460 -539 0
-460 -540 0
-461 -471 0
-461 -473 0
-461 -474 0
-461 -476 0
-461 -477 0
-461 -478 0
-461 -479 0
-461 -480 0
-461 -541 0
-461 -543 0
-461 -544 0
-461 -546 0
-461 -547 0
-461 -548 0
-461 -549 0
-461 -550 0
-462 -471 0
-462 -472 0
-462 -474 0
-462 -475 0
-462 -476 0
-462 -477 0
-462 -478 0
-462 -479 0
-462 -480 0
-462 -541 0
-462 -542 0
-462 -543 0
-462 -544 0
-462 -545 0
-462 -547 0
-462 -548 0
-462 -549 0
-462 -550 0
-463 -471 0
-463 -472 0
-463 -473 0
-463 -475 0
-463 -476 0
-463 -477 0
-463 -478 0
-463 -479 0
-463 -480 0
-463 -541 0
-463 -542 0
-463 -543 0
-463 -544 0
-463 -545 0
-463 -546 0
-463 -548 0
-463 -549 0
-463 -550 0
-464 -472 0
-464 -473 0
-464 -474 0
-464 -475 0
-464 -476 0
-464 -477 0
-464 -478 0
-464 -479 0
-464 -480 0
-464 -541 0
-464 -542 0
-464 -543 0
-464 -544 0
-464 -545 0
-464 -546 0
-464 -547 0
-464 -549 0
-464 -550 0
-465 -471 0
-465 -472 0
-465 -473 0
-465 -474 0
-465 -475 0
-465 -477 0
-465 -478 0
-465 -480 0
-465 -541 0
-465 -542 0
-465 -544 0
-465 -545 0
-465 -546 0
-465 -547 0
-465 -548 0
-465 -550 0
-466 -471 0
-466 -472 0
-466 -473 0
-466 -474 0
-466 -475 0
-466 -476 0
-466 -478 0
-466 -479 0
-466 -480 0
-466 -541 0
-466 -542 0
-466 -543 0
-466 -545 0
-466 -546 0
-466 -547 0
-466 -548 0
-466 -549 0
-467 -471 0
-467 -472 0
-467 -473 0
-467 -474 0
-467 -475 0
-467 -476 0
-467 -477 0
-467 -479 0
-467 -480 0
-467 -542 0
-467 -543 0
-467 -544 0
-467 -545 0
-467 -546 0
-467 -547 0
-467 -548 0
-467 -549 0
-467 -550 0
-468 -471 0
-468 -473 0
-468 -474 0
-468 -476 0
-468 -477 0
-468 -478 0
-468 -479 0
-468 -480 0
-468 -541 0
-468 -543 0
-468 -544 0
-468 -546 0
-468 -547 0
-468 -548 0
-468 -549 0
-468 -550 0
-469 -471 0
-469 -472 0
-469 -473 0
-469 -474 0
-469 -475 0
-469 -476 0
-469 -477 0
-469 -478 0
-469 -479 0
-469 -541 0
-469 -542 0
-469 -543 0
-469 -545 0
-469 -546 0
-469 -547 0
-469 -548 0
-469 -549 0
-470 -472 0
-470 -473 0
-470 -474 0
-470 -475 0
-470 -476 0
-470 -477 0
-470 -478 0
-470 -479 0
-470 -480 0
-470 -542 0
-470 -543 0
-470 -544 0
-470 -545 0
-470 -546 0
-470 -547 0
-470 -548 0
-470 -549 0
-470 -550 0
-471 -551 0
-471 -553 0
-471 -554 0
-471 -556 0
-471 -557 0
-471 -558 0
-471 -559 0
-471 -560 0
-472 -551 0
-472 -552 0
-472 -553 0
-472 -554 0
-472 -555 0
-472 -557 0
-472 -558 0
-472 -559 0
-472 -560 0
-473 -551 0
-473 -552 0
-473 -553 0
-473 -554 0
-473 -555 0
-473 -556 0
-473 -558 0
-473 -559 0
-473 -560 0
-474 -551 0
-474 -552 0
-474 -553 0
-474 -554 0
-474 -555 0
-474 -556 0
-474 -557 0
-474 -559 0
-474 -560 0
-475 -551 0
-475 -552 0
-475 -554 0
-475 -555 0
-475 -556 0
-475 -557 0
-475 -558 0
-475 -560 0
-476 -551 0
-476 -552 0
-476 -553 0
-476 -555 0
-476 -556 0
-476 -557 0
-476 -558 0
-476 -559 0
-477 -552 0
-477 -553 0
-477 -554 0
-477 -555 0
-477 -556 0
-477 -557 0
-477 -558 0
-477 -559 0
-477 -560 0
-478 -551 0
-478 -553 0
-478 -554 0
-478 -556 0
-478 -557 0
-478 -558 0
-478 -559 0
-478 -560 0
-479 -551 0
-479 -552 0
-479 -553 0
-479 -555 0
-479 -556 0
-479 -557 0
-479 -558 0
-479 -559 0
-480 -552 0
-480 -553 0
-480 -554 0
-480 -555 0
-480 -556 0
-480 -557 0
-480 -558 0
-480 -559 0
-480 -560 0
-481 -491 0
-481 -493 0
-481 -494 0
-481 -496 0
-481 -497 0
-481 -498 0
-481 -499 0
-481 -500 0
-481 -561 0
-481 -563 0
-481 -564 0
-481 -566 0
-481 -567 0
-481 -568 0
-481 -569 0
-481 -570 0
-482 -491 0
-482 -492 0
-482 -494 0
-482 -495 0
-482 -496 0
-482 -497 0
-482 -498 0
-482 -499 0
-482 -500 0
-482 -561 0
-482 -562 0
-482 -563 0
-482 -564 0
-482 -565 0
-482 -567 0
-482 -568 0
-482 -569 0
-482 -570 0
-483 -491 0
-483 -492 0
-483 -493 0
-483 -495 0
-483 -496 0
-483 -497 0
-483 -498 0
-483 -499 0
-483 -500 0
-483 -561 0
-483 -562 0
-483 -563 0
-483 -564 0
-483 -565 0
-483 -566 0
-483 -568 0
-483 -569 0
-483 -570 0
-484 -492 0
-484 -493 0
-484 -494 0
-484 -495 0
-484 -496 0
-484 -497 0
-484 -498 0
-484 -499 0
-484 -500 0
-484 -561 0
-484 -562 0
-484 -563 0
-484 -564 0
-484 -565 0
-484 -566 0
-484 -567 0
-484 -569 0
-484 -570 0
-485 -491 0
-485 -492 0
-485 -493 0
-485 -494 0
-485 -495 0
-485 -497 0
-485 -498 0
-485 -500 0
-485 -561 0
-485 -562 0
-485 -564 0
-485 -565 0
-485 -566 0
-485 -567 0
-485 -568 0
-485 -570 0
-486 -491 0
-486 -492 0
-486 -493 0
-486 -494 0
-486 -495 0
-486 -496 0
-486 -498 0
-486 -499 0
-486 -500 0
-486 -561 0
-486 -562 0
-486 -563 0
-486 -565 0
-486 -566 0
-486 -567 0
-486 -568 0
-486 -569 0
-487 -491 0
-487 -492 0
-487 -493 0
-487 -494 0
-487 -495 0
-487 -496 0
-487 -497 0
-487 -499 0
-487 -500 0
-487 -562 0
-487 -563 0
-487 -564 0
-487 -565 0
-487 -566 0
-487 -567 0
-487 -568 0
-487 -569 0
-487 -570 0
-488 -491 0
-488 -493 0
-488 -494 0
-488 -496 0
-488 -497 0
-488 -498 0
-488 -499 0
-488 -500 0
-488 -561 0
-488 -563 0
-488 -564 0
-488 -566 0
-488 -567 0
-488 -568 0
-488 -569 0
-488 -570 0
-489 -491 0
-489 -492 0
-489 -493 0
-489 -494 0
-489 -495 0
-489 -496 0
-489 -497 0
-489 -498 0
-489 -499 0
-489 -561 0
-489 -562 0
-489 -563 0
-489 -565 0
-489 -566 0
-489 -567 0
-489 -568 0
-489 -569 0
-490 -492 0
-490 -493 0
-490 -494 0
-490 -495 0
-490 -496 0
-490 -497 0
-490 -498 0
-490 -499 0
-490 -500 0
-490 -562 0
-490 -563 0
-490 -564 0
-490 -565 0
-490 -566 0
-490 -567 0
-490 -568 0
-490 -569 0
-490 -570 0
-491 -501 0
-491 -503 0
-491 -504 0
-491 -506 0
-491 -507 0
-491 -508 0
-491 -509 0
-491 -510 0
-491 -571 0
-491 -573 0
-491 -574 0
-491 -576 0
-491 -577 0
-491 -578 0
-491 -579 0
-491 -580 0
-492 -501 0
-492 -502 0
-492 -504 0
-492 -505 0
-492 -506 0
-492 -507 0
-492 -508 0
-492 -509 0
-492 -510 0
-492 -571 0
-492 -572 0
-492 -573 0
-492 -574 0
-492 -575 0
-492 -577 0
-492 -578 0
-492 -579 0
-492 -580 0
-493 -501 0
-493 -502 0
-493 -503 0
-493 -505 0
-493 -506 0
-493 -507 0
-493 -508 0
-493 -509 0
-493 -510 0
-493 -571 0
-493 -572 0
-493 -573 0
-493 -574 0
-493 -575 0
-493 -576 0
-493 -578 0
-493 -579 0
-493 -580 0
-494 -502 0
-494 -503 0
-494 -504 0
-494 -505 0
-494 -506 0
-494 -507 0
-494 -508 0
-494 -509 0
-494 -510 0
-494 -571 0
-494 -572 0
-494 -573 0
-494 -574 0
-494 -575 0
-494 -576 0
-494 -577 0
-494 -579 0
-494 -580 0
-495 -501 0
-495 -502 0
-495 -503 0
-495 -504 0
-495 -505 0
-495 -507 0
-495 -508 0
-495 -510 0
-495 -571 0
-495 -572 0
-495 -574 0
-495 -575 0
-495 -576 0
-495 -577 0
-495 -578 0
-495 -580 0
-496 -501 0
-496 -502 0
-496 -503 0
-496 -504 0
-496 -505 0
-496 -506 0
-496 -508 0
-496 -509 0
-496 -510 0
-496 -571 0
-496 -572 0
-496 -573 0
-496 -575 0
-496 -576 0
-496 -577 0
-496 -578 0
-496 -579 0
-497 -501 0
-497 -502 0
-497 -503 0
-497 -504 0
-497 -505 0
-497 -506 0
-497 -507 0
-497 -509 0
-497 -510 0
-497 -572 0
-497 -573 0
-497 -574 0
-497 -575 0
-497 -576 0
-497 -577 0
-497 -578 0
-497 -579 0
-497 -580 0
-498 -501 0
-498 -503 0
-498 -504 0
-498 -506 0
-498 -507 0
-498 -508 0
-498 -509 0
-498 -510 0
-498 -571 0
-498 -573 0
-498 -574 0
-498 -576 0
-498 -577 0
-498 -578 0
-498 -579 0
-498 -580 0
-499 -501 0
-499 -502 0
-499 -503 0
-499 -504 0
-499 -505 0
-499 -506 0
-499 -507 0
-499 -508 0
-499 -509 0
-499 -571 0
-499 -572 0
-499 -573 0
-499 -575 0
-499 -576 0
-499 -577 0
-499 -578 0
-499 -579 0
-500 -502 0
-500 -503 0
-500 -504 0
-500 -505 0
-500 -506 0
-500 -507 0
-500 -508 0
-500 -509 0
-500 -510 0
-500 -572 0
-500 -573 0
-500 -574 0
-500 -575 0
-500 -576 0
-500 -577 0
-500 -578 0
-500 -579 0
-500 -580 0
-501 -511 0
-501 -513 0
-501 -514 0
-501 -516 0
-501 -517 0
-501 -518 0
-501 -519 0
-501 -520 0
-501 -581 0
-501 -583 0
-501 -584 0
-501 -586 0
-501 -587 0
-501 -588 0
-501 -589 0
-501 -590 0
-502 -511 0
-502 -512 0
-502 -514 0
-502 -515 0
-502 -516 0
-502 -517 0
-502 -518 0
-502 -519 0
-502 -520 0
-502 -581 0
-502 -582 0
-502 -583 0
-502 -584 0
-502 -585 0
-502 -587 0
-502 -588 0
-502 -589 0
-502 -590 0
-503 -511 0
-503 -512 0
-503 -513 0
-503 -515 0
-503 -516 0
-503 -517 0
-503 -518 0
-503 -519 0
-503 -520 0
-503 -581 0
-503 -582 0
-503 -583 0
-503 -584 0
-503 -585 0
-503 -586 0
-503 -588 0
-503 -589 0
-503 -590 0
-504 -512 0
-504 -513 0
-504 -514 0
-504 -515 0
-504 -516 0
-504 -517 0
-504 -518 0
-504 -519 0
-504 -520 0
-504 -581 0
-504 -582 0
-504 -583 0
-504 -584 0
-504 -585 0
-504 -586 0
-504 -587 0
-504 -589 0
-504 -590 0
-505 -511 0
-505 -512 0
-505 -513 0
-505 -514 0
-505 -515 0
-505 -517 0
-505 -518 0
-505 -520 0
-505 -581 0
-505 -582 0
-505 -584 0
-505 -585 0
-505 -586 0
-505 -587 0
-505 -588 0
-505 -590 0
-506 -511 0
-506 -512 0
-506 -513 0
-506 -514 0
-506 -515 0
-506 -516 0
-506 -518 0
-506 -519 0
-506 -520 0
-506 -581 0
-506 -582 0
-506 -583 0
-506 -585 0
-506 -586 0
-506 -587 0
-506 -588 0
-506 -589 0
-507 -511 0
-507 -512 0
-507 -513 0
-507 -514 0
-507 -515 0
-507 -516 0
-507 -517 0
-507 -519 0
-507 -520 0
-507 -582 0
-507 -583 0
-507 -584 0
-507 -585 0
-507 -586 0
-507 -587 0
-507 -588 0
-507 -589 0
-507 -590 0
-508 -511 0
-508 -513 0
-508 -514 0
-508 -516 0
-508 -517 0
-508 -518 0
-508 -519 0
-508 -520 0
-508 -581 0
-508 -583 0
-508 -584 0
-508 -586 0
-508 -587 0
-508 -588 0
-508 -589 0
-508 -590 0
-509 -511 0
-509 -512 0
-509 -513 0
-509 -514 0
-509 -515 0
-509 -516 0
-509 -517 0
-509 -518 0
-509 -519 0
-509 -581 0
-509 -582 0
-509 -583 0
-509 -585 0
-509 -586 0
-509 -587 0
-509 -588 0
-509 -589 0
-510 -512 0
-510 -513 0
-510 -514 0
-510 -515 0
-510 -516 0
-510 -517 0
-510 -518 0
-510 -519 0
-510 -520 0
-510 -582 0
-510 -583 0
-510 -584 0
-510 -585 0
-510 -586 0
-510 -587 0
-510 -588 0
-510 -589 0
-510 -590 0
-511 -521 0
-511 -523 0
-511 -524 0
-511 -526 0
-511 -527 0
-511 -528 0
-511 -529 0
-511 -530 0
-511 -591 0
-511 -593 0
-511 -594 0
-511 -596 0
-511 -597 0
-511 -598 0
-511 -599 0
-511 -600 0
-512 -521 0
-512 -522 0
-512 -524 0
-512 -525 0
-512 -526 0
-512 -527 0
-512 -528 0
-512 -529 0
-512 -530 0
-512 -591 0
-512 -592 0
-512 -593 0
-512 -594 0
-512 -595 0
-512 -597 0
-512 -598 0
-512 -599 0
-512 -600 0
-513 -521 0
-513 -522 0
-513 -523 0
-513 -525 0
-513 -526 0
-513 -527 0
-513 -528 0
-513 -529 0
-513 -530 0
-513 -591 0
-513 -592 0
-513 -593 0
-513 -594 0
-513 -595 0
-513 -596 0
-513 -598 0
-513 -599 0
-513 -600 0
-514 -522 0
-514 -523 0
-514 -524 0
-514 -525 0
-514 -526 0
-514 -527 0
-514 -528 0
-514 -529 0
-514 -530 0
-514 -591 0
-514 -592 0
-514 -593 0
-514 -594 0
-514 -595 0
-514 -596 0
-514 -597 0
-514 -599 0
-514 -600 0
-515 -521 0
-515 -522 0
-515 -523 0
-515 -524 0
-515 -525 0
-515 -527 0
-515 -528 0
-515 -530 0
-515 -591 0
-515 -592 0
-515 -594 0
-515 -595 0
-515 -596 0
-515 -597 0
-515 -598 0
-515 -600 0
-516 -521 0
-516 -522 0
-516 -523 0
-516 -524 0
-516 -525 0
-516 -526 0
-516 -528 0
-516 -529 0
-516 -530 0
-516 -591 0
-516 -592 0
-516 -593 0
-516 -595 0
-516 -596 0
-516 -597 0
-516 -598 0
-516 -599 0
-517 -521 0
-517 -522 0
-517 -523 0
-517 -524 0
-517 -525 0
-517 -526 0
-517 -527 0
-517 -529 0
-517 -530 0
-517 -592 0
-517 -593 0
-517 -594 0
-517 -595 0
-517 -596 0
-517 -597 0
-517 -598 0
-517 -599 0
-517 -600 0
-518 -521 0
-518 -523 0
-518 -524 0
-518 -526 0
-518 -527 0
-518 -528 0
-518 -529 0
-518 -530 0
-518 -591 0
-518 -593 0
-518 -594 0
-518 -596 0
-518 -597 0
-518 -598 0
-518 -599 0
-518 -600 0
-519 -521 0
-519 -522 0
-519 -523 0
-519 -524 0
-519 -525 0
-519 -526 0
-519 -527 0
-519 -528 0
-519 -529 0
-519 -591 0
-519 -592 0
-519 -593 0
-519 -595 0
-519 -596 0
-519 -597 0
-519 -598 0
-519 -599 0
-520 -522 0
-520 -523 0
-520 -524 0
-520 -525 0
-520 -526 0
-520 -527 0
-520 -528 0
-520 -529 0
-520 -530 0
-520 -592 0
-520 -593 0
-520 -594 0
-520 -595 0
-520 -596 0
-520 -597 0
-520 -598 0
-520 -599 0
-520 -600 0
-521 -531 0
-521 -533 0
-521 -534 0
-521 -536 0
-521 -537 0
-521 -538 0
-521 -539 0
-521 -540 0
-521 -601 0
-521 -603 0
-521 -604 0
-521 -606 0
-521 -607 0
-521 -608 0
-521 -609 0
-521 -610 0
-522 -531 0
-522 -532 0
-522 -534 0
-522 -535 0
-522 -536 0
-522 -537 0
-522 -538 0
-522 -539 0
-522 -540 0
-522 -601 0
-522 -602 0
-522 -603 0
-522 -604 0
-522 -605 0
-522 -607 0
-522 -608 0
-522 -609 0
-522 -610 0
-523 -531 0
-523 -532 0
-523 -533 0
-523 -535 0
-523 -536 0
-523 -537 0
-523 -538 0
-523 -539 0
-523 -540 0
-523 -601 0
-523 -602 0
-523 -603 0
-523 -604 0
-523 -605 0
-523 -606 0
-523 -608 0
-523 -609 0
-523 -610 0
-524 -532 0
-524 -533 0
-524 -534 0
-524 -535 0
-524 -536 0
-524 -537 0
-524 -538 0
-524 -539 0
-524 -540 0
-524 -601 0
-524 -602 0
-524 -603 0
-524 -604 0
-524 -605 0
-524 -606 0
-524 -607 0
-524 -609 0
-524 -610 0
-525 -531 0
-525 -532 0
-525 -533 0
-525 -534 0
-525 -535 0
-525 -537 0
-525 -538 0
-525 -540 0
-525 -601 0
-525 -602 0
-525 -604 0
-525 -605 0
-525 -606 0
-525 -607 0
-525 -608 0
-525 -610 0
-526 -531 0
-526 -532 0
-526 -533 0
-526 -534 0
-526 -535 0
-526 -536 0
-526 -538 0
-526 -539 0
-526 -540 0
-526 -601 0
-526 -602 0
-526 -603 0
-526 -605 0
-526 -606 0
-526 -607 0
-526 -608 0
-526 -609 0
-527 -531 0
-527 -532 0
-527 -533 0
-527 -534 0
-527 -535 0
-527 -536 0
-527 -537 0
-527 -539 0
-527 -540 0
-527 -602 0
-527 -603 0
-527 -604 0
-527 -605 0
-527 -606 0
-527 -607 0
-527 -608 0
-527 -609 0
-527 -610 0
-528 -531 0
-528 -533 0
-528 -534 0
-528 -536 0
-528 -537 0
-528 -538 0
-528 -539 0
-528 -540 0
-528 -601 0
-528 -603 0
-528 -604 0
-528 -606 0
-528 -607 0
-528 -608 0
-528 -609 0
-528 -610 0
-529 -531 0
-529 -532 0
-529 -533 0
-529 -534 0
-529 -535 0
-529 -536 0
-529 -537 0
-529 -538 0
-529 -539 0
-529 -601 0
-529 -602 0
-529 -603 0
-529 -605 0
-529 -606 0
-529 -607 0
-529 -608 0
-529 -609 0
-530 -532 0
-530 -533 0
-530 -534 0
-530 -535 0
-530 -536 0
-530 -537 0
-530 -538 0
-530 -539 0
-530 -540 0
-530 -602 0
-530 -603 0
-530 -604 0
-530 -605 0
-530 -606 0
-530 -607 0
-530 -608 0
-530 -609 0
-530 -610 0
-531 -541 0
-531 -543 0
-531 -544 0
-531 -546 0
-531 -547 0
-531 -548 0
-531 -549 0
-531 -550 0
-531 -611 0
-531 -613 0
-531 -614 0
-531 -616 0
-531 -617 0
-531 -618 0
-531 -619 0
-531 -620 0
-532 -541 0
-532 -542 0
-532 -544 0
-532 -545 0
-532 -546 0
-532 -547 0
-532 -548 0
-532 -549 0
-532 -550 0
-532 -611 0
-532 -612 0
-532 -613 0
-532 -614 0
-532 -615 0
-532 -617 0
-532 -618 0
-532 -619 0
-532 -620 0
-533 -541 0
-533 -542 0
-533 -543 0
-533 -545 0
-533 -546 0
-533 -547 0
-533 -548 0
-533 -549 0
-533 -550 0
-533 -611 0
-533 -612 0
-533 -613 0
-533 -614 0
-533 -615 0
-533 -616 0
-533 -618 0
-533 -619 0
-533 -620 0
-534 -542 0
-534 -543 0
-534 -544 0
-534 -545 0
-534 -546 0
-534 -547 0
-534 -548 0
-534 -549 0
-534 -550 0
-534 -611 0
-534 -612 0
-534 -613 0
-534 -614 0
-534 -615 0
-534 -616 0
-534 -617 0
-534 -619 0
-534 -620 0
-535 -541 0
-535 -542 0
-535 -543 0
-535 -544 0
-535 -545 0
-535 -547 0
-535 -548 0
-535 -550 0
-535 -611 0
-535 -612 0
-535 -614 0
-535 -615 0
-535 -616 0
-535 -617 0
-535 -618 0
-535 -620 0
-536 -541 0
-536 -542 0
-536 -543 0
-536 -544 0
-536 -545 0
-536 -546 0
-536 -548 0
-536 -549 0
-536 -550 0
-536 -611 0
-536 -612 0
-536 -613 0
-536 -615 0
-536 -616 0
-536 -617 0
-536 -618 0
-536 -619 0
-537 -541 0
-537 -542 0
-537 -543 0
-537 -544 0
-537 -545 0
-537 -546 0
-537 -547 0
-537 -549 0
-537 -550 0
-537 -612 0
-537 -613 0
-537 -614 0
-537 -615 0
-537 -616 0
-537 -617 0
-537 -618 0
-537 -619 0
-537 -620 0
-538 -541 0
-538 -543 0
-538 -544 0
-538 -546 0
-538 -547 0
-538 -548 0
-538 -549 0
-538 -550 0
-538 -611 0
-538 -613 0
-538 -614 0
-538 -616 0
-538 -617 0
-538 -618 0
-538 -619 0
-538 -620 0
-539 -541 0
-539 -542 0
-539 -543 0
-539 -544 0
-539 -545 0
-539 -546 0
-539 -547 0
-539 -548 0
-539 -549 0
-539 -611 0
-539 -612 0
-539 -613 0
-539 -615 0
-539 -616 0
-539 -617 0
-539 -618 0
-539 -619 0
-540 -542 0
-540 -543 0
-540 -544 0
-540 -545 0
-540 -546 0
-540 -547 0
-540 -548 0
-540 -549 0
-540 -550 0
-540 -612 0
-540 -613 0
-540 -614 0
-540 -615 0
-540 -616 0
-540 -617 0
-540 -618 0
-540 -619 0
-540 -620 0
-541 -551 0
-541 -553 0
-541 -554 0
-541 -556 0
-541 -557 0
-541 -558 0
-541 -559 0
-541 -560 0
-541 -621 0
-541 -623 0
-541 -624 0
-541 -626 0
-541 -627 0
-541 -628 0
-541 -629 0
-541 -630 0
-542 -551 0
-542 -552 0
-542 -554 0
-542 -555 0
-542 -556 0
-542 -557 0
-542 -558 0
-542 -559 0
-542 -560 0
-542 -621 0
-542 -622 0
-542 -623 0
-542 -624 0
-542 -625 0
-542 -627 0
-542 -628 0
-542 -629 0
-542 -630 0
-543 -551 0
-543 -552 0
-543 -553 0
-543 -555 0
-543 -556 0
-543 -557 0
-543 -558 0
-543 -559 0
-543 -560 0
-543 -621 0
-543 -622 0
-543 -623 0
-543 -624 0
-543 -625 0
-543 -626 0
-543 -628 0
-543 -629 0
-543 -630 0
-544 -552 0
-544 -553 0
-544 -554 0
-544 -555 0
-544 -556 0
-544 -557 0
-544 -558 0
-544 -559 0
-544 -560 0
-544 -621 0
-544 -622 0
-544 -623 0
-544 -624 0
-544 -625 0
-544 -626 0
-544 -627 0
-544 -629 0
-544 -630 0
-545 -551 0
-545 -552 0
-545 -553 0
-545 -554 0
-545 -555 0
-545 -557 0
-545 -558 0
-545 -560 0
-545 -621 0
-545 -622 0
-545 -624 0
-545 -625 0
-545 -626 0
-545 -627 0
-545 -628 0
-545 -630 0
-546 -551 0
-546 -552 0
-546 -553 0
-546 -554 0
-546 -555 0
-546 -556 0
-546 -558 0
-546 -559 0
-546 -560 0
-546 -621 0
-546 -622 0
-546 -623 0
-546 -625 0
-546 -626 0
-546 -627 0
-546 -628 0
-546 -629 0
-547 -551 0
-547 -552 0
-547 -553 0
-547 -554 0
-547 -555 0
-547 -556 0
-547 -557 0
-547 -559 0
-547 -560 0
-547 -622 0
-547 -623 0
-547 -624 0
-547 -625 0
-547 -626 0
-547 -627 0
-547 -628 0
-547 -629 0
-547 -630 0
-548 -551 0
-548 -553 0
-548 -554 0
-548 -556 0
-548 -557 0
-548 -558 0
-548 -559 0
-548 -560 0
-548 -621 0
-548 -623 0
-548 -624 0
-548 -626 0
-548 -627 0
-548 -628 0
-548 -629 0
-548 -630 0
-549 -551 0
-549 -552 0
-549 -553 0
-549 -554 0
-549 -555 0
-549 -556 0
-549 -557 0
-549 -558 0
-549 -559 0
-549 -621 0
-549 -622 0
-549 -623 0
-549 -625 0
-549 -626 0
-549 -627 0
-549 -628 0
-549 -629 0
-550 -552 0
-550 -553 0
-550 -554 0
-550 -555 0
-550 -556 0
-550 -557 0
-550 -558 0
-550 -559 0
-550 -560 0
-550 -622 0
-550 -623 0
-550 -624 0
-550 -625 0
-550 -626 0
-550 -627 0
-550 -628 0
-550 -629 0
-550 -630 0
-551 -631 0
-551 -633 0
-551 -634 0
-551 -636 0
-551 -637 0
-551 -638 0
-551 -639 0
-551 -640 0
-552 -631 0
-552 -632 0
-552 -633 0
-552 -634 0
-552 -635 0
-552 -637 0
-552 -638 0
-552 -639 0
-552 -640 0
-553 -631 0
-553 -632 0
-553 -633 0
-553 -634 0
-553 -635 0
-553 -636 0
-553 -638 0
-553 -639 0
-553 -640 0
-554 -631 0
-554 -632 0
-554 -633 0
-554 -634 0
-554 -635 0
-554 -636 0
-554 -637 0
-554 -639 0
-554 -640 0
-555 -631 0
-555 -632 0
-555 -634 0
-555 -635 0
-555 -636 0
-555 -637 0
-555 -638 0
-555 -640 0
-556 -631 0
-556 -632 0
-556 -633 0
-556 -635 0
-556 -636 0
-556 -637 0
-556 -638 0
-556 -639 0
-557 -632 0
-557 -633 0
-557 -634 0
-557 -635 0
-557 -636 0
-557 -637 0
-557 -638 0
-557 -639 0
-557 -640 0
-558 -631 0
-558 -633 0
-558 -634 0
-558 -636 0
-558 -637 0
-558 -638 0
-558 -639 0
-558 -640 0
-559 -631 0
-559 -632 0
-559 -633 0
-559 -635 0
-559 -636 0
-559 -637 0
-559 -638 0
-559 -639 0
-560 -632 0
-560 -633 0
-560 -634 0
-560 -635 0
-560 -636 0
-560 -637 0
-560 -638 0
-560 -639 0
-560 -640 0
-561 -571 0
-561 -573 0
-561 -574 0
-561 -576 0
-561 -577 0
-561 -578 0
-561 -579 0
-561 -580 0
-562 -571 0
-562 -572 0
-562 -574 0
-562 -575 0
-562 -576 0
-562 -577 0
-562 -578 0
-562 -579 0
-562 -580 0
-563 -571 0
-563 -572 0
-563 -573 0
-563 -575 0
-563 -576 0
-563 -577 0
-563 -578 0
-563 -579 0
-563 -580 0
-564 -572 0
-564 -573 0
-564 -574 0
-564 -575 0
-564 -576 0
-564 -577 0
-564 -578 0
-564 -579 0
-564 -580 0
-565 -571 0
-565 -572 0
-565 -573 0
-565 -574 0
-565 -575 0
-565 -577 0
-565 -578 0
-565 -580 0
-566 -571 0
-566 -572 0
-566 -573 0
-566 -574 0
-566 -575 0
-566 -576 0
-566 -578 0
-566 -579 0
-566 -580 0
-567 -571 0
-567 -572 0
-567 -573 0
-567 -574 0
-567 -575 0
-567 -576 0
-567 -577 0
-567 -579 0
-567 -580 0
-568 -571 0
-568 -573 0
-568 -574 0
-568 -576 0
-568 -577 0
-568 -578 0
-568 -579 0
-568 -580 0
-569 -571 0
-569 -572 0
-569 -573 0
-569 -574 0
-569 -575 0
-569 -576 0
-569 -577 0
-569 -578 0
-569 -579 0
-570 -572 0
-570 -573 0
-570 -574 0
-570 -575 0
-570 -576 0
-570 -577 0
-570 -578 0
-570 -579 0
-570 -580 0
-571 -581 0
-571 -583 0
-571 -584 0
-571 -586 0
-571 -587 0
-571 -588 0
-571 -589 0
-571 -590 0
-572 -581 0
-572 -582 0
-572 -584 0
-572 -585 0
-572 -586 0
-572 -587 0
-572 -588 0
-572 -589 0
-572 -590 0
-573 -581 0
-573 -582 0
-573 -583 0
-573 -585 0
-573 -586 0
-573 -587 0
-573 -588 0
-573 -589 0
-573 -590 0
-574 -582 0
-574 -583 0
-574 -584 0
-574 -585 0
-574 -586 0
-574 -587 0
-574 -588 0
-574 -589 0
-574 -590 0
-575 -581 0
-575 -582 0
-575 -583 0
-575 -584 0
-575 -585 0
-575 -587 0
-575 -588 0
-575 -590 0
-576 -581 0
-576 -582 0
-576 -583 0
-576 -584 0
-576 -585 0
-576 -586 0
-576 -588 0
-576 -589 0
-576 -590 0
-577 -581 0
-577 -582 0
-577 -583 0
-577 -584 0
-577 -585 0
-577 -586 0
-577 -587 0
-577 -589 0
-577 -590 0
-578 -581 0
-578 -583 0
-578 -584 0
-578 -586 0
-578 -587 0
-578 -588 0
-578 -589 0
-578 -590 0
-579 -581 0
-579 -582 0
-579 -583 0
-579 -584 0
-579 -585 0
-579 -586 0
-579 -587 0
-579 -588 0
-579 -589 0
-580 -582 0
-580 -583 0
-580 -584 0
-580 -585 0
-580 -586 0
-580 -587 0
-580 -588 0
-580 -589 0
-580 -590 0
-581 -591 0
-581 -593 0
-581 -594 0
-581 -596 0
-581 -597 0
-581 -598 0
-581 -599 0
-581 -600 0
-582 -591 0
-582 -592 0
-582 -594 0
-582 -595 0
-582 -596 0
-582 -597 0
-582 -598 0
-582 -599 0
-582 -600 0
-583 -591 0
-583 -592 0
-583 -593 0
-583 -595 0
-583 -596 0
-583 -597 0
-583 -598 0
-583 -599 0
-583 -600 0
-584 -592 0
-584 -593 0
-584 -594 0
-584 -595 0
-584 -596 0
-584 -597 0
-584 -598 0
-584 -599 0
-584 -600 0
-585 -591 0
-585 -592 0
-585 -593 0
-585 -594 0
-585 -595 0
-585 -597 0
-585 -598 0
-585 -600 0
-586 -591 0
-586 -592 0
-586 -593 0
-586 -594 0
-586 -595 0
-586 -596 0
-586 -598 0
-586 -599 0
-586 -600 0
-587 -591 0
-587 -592 0
-587 -593 0
-587 -594 0
-587 -595 0
-587 -596 0
-587 -597 0
-587 -599 0
-587 -600 0
-588 -591 0
-588 -593 0
-588 -594 0
-588 -596 0
-588 -597 0
-588 -598 0
-588 -599 0
-588 -600 0
-589 -591 0
-589 -592 0
-589 -593 0
-589 -594 0
-589 -595 0
-589 -596 0
-589 -597 0
-589 -598 0
-589 -599 0
-590 -592 0
-590 -593 0
-590 -594 0
-590 -595 0
-590 -596 0
-590 -597 0
-590 -598 0
-590 -599 0
-590 -600 0
-591 -601 0
-591 -603 0
-591 -604 0
-591 -606 0
-591 -607 0
-591 -608 0
-591 -609 0
-591 -610 0
-592 -601 0
-592 -602 0
-592 -604 0
-592 -605 0
-592 -606 0
-592 -607 0
-592 -608 0
-592 -609 0
-592 -610 0
-593 -601 0
-593 -602 0
-593 -603 0
-593 -605 0
-593 -606 0
-593 -607 0
-593 -608 0
-593 -609 0
-593 -610 0
-594 -602 0
-594 -603 0
-594 -604 0
-594 -605 0
-594 -606 0
-594 -607 0
-594 -608 0
-594 -609 0
-594 -610 0
-595 -601 0
-595 -602 0
-595 -603 0
-595 -604 0
-595 -605 0
-595 -607 0
-595 -608 0
-595 -610 0
-596 -601 0
-596 -602 0
-596 -603 0
-596 -604 0
-596 -605 0
-596 -606 0
-596 -608 0
-596 -609 0
-596 -610 0
-597 -601 0
-597 -602 0
-597 -603 0
-597 -604 0
-597 -605 0
-597 -606 0
-597 -607 0
-597 -609 0
-597 -610 0
-598 -601 0
-598 -603 0
-598 -604 0
-598 -606 0
-598 -607 0
-598 -608 0
-598 -609 0
-598 -610 0
-599 -601 0
-599 -602 0
-599 -603 0
-599 -604 0
-599 -605 0
-599 -606 0
-599 -607 0
-599 -608 0
-599 -609 0
-600 -602 0
-600 -603 0
-600 -604 0
-600 -605 0
-600 -606 0
-600 -607 0
-600 -608 0
-600 -609 0
-600 -610 0
-601 -611 0
-601 -613 0
-601 -614 0
-601 -616 0
-601 -617 0
-601 -618 0
-601 -619 0
-601 -620 0
-602 -611 0
-602 -612 0
-602 -614 0
-602 -615 0
-602 -616 0
-602 -617 0
-602 -618 0
-602 -619 0
-602 -620 0
-603 -611 0
-603 -612 0
-603 -613 0
-603 -615 0
-603 -616 0
-603 -617 0
-603 -618 0
-603 -619 0
-603 -620 0
-604 -612 0
-604 -613 0
-604 -614 0
-604 -615 0
-604 -616 0
-604 -617 0
-604 -618 0
-604 -619 0
-604 -620 0
-605 -611 0
-605 -612 0
-605 -613 0
-605 -614 0
-605 -615 0
-605 -617 0
-605 -618 0
-605 -620 0
-606 -611 0
-606 -612 0
-606 -613 0
-606 -614 0
-606 -615 0
-606 -616 0
-606 -618 0
-606 -619 0
-606 -620 0
-607 -611 0
-607 -612 0
-607 -613 0
-607 -614 0
-607 -615 0
-607 -616 0
-607 -617 0
-607 -619 0
-607 -620 0
-608 -611 0
-608 -613 0
-608 -614 0
-608 -616 0
-608 -617 0
-608 -618 0
-608 -619 0
-608 -620 0
-609 -611 0
-609 -612 0
-609 -613 0
-609 -614 0
-609 -615 0
-609 -616 0
-609 -617 0
-609 -618 0
-609 -619 0
-610 -612 0
-610 -613 0
-610 -614 0
-610 -615 0
-610 -616 0
-610 -617 0
-610 -618 0
-610 -619 0
-610 -620 0
-611 -621 0
-611 -623 0
-611 -624 0
-611 -626 0
-611 -627 0
-611 -628 0
-611 -629 0
-611 -630 0
-612 -621 0
-612 -622 0
-612 -624 0
-612 -625 0
-612 -626 0
-612 -627 0
-612 -628 0
-612 -629 0
-612 -630 0
-613 -621 0
-613 -622 0
-613 -623 0
-613 -625 0
-613 -626 0
-613 -627 0
-613 -628 0
-613 -629 0
-613 -630 0
-614 -622 0
-614 -623 0
-614 -624 0
-614 -625 0
-614 -626 0
-614 -627 0
-614 -628 0
-614 -629 0
-614 -630 0
-615 -621 0
-615 -622 0
-615 -623 0
-615 -624 0
-615 -625 0
-615 -627 0
-615 -628 0
-615 -630 0
-616 -621 0
-616 -622 0
-616 -623 0
-616 -624 0
-616 -625 0
-616 -626 0
-616 -628 0
-616 -629 0
-616 -630 0
-617 -621 0
-617 -622 0
-617 -623 0
-617 -624 0
-617 -625 0
-617 -626 0
-617 -627 0
-617 -629 0
-617 -630 0
-618 -621 0
-618 -623 0
-618 -624 0
-618 -626 0
-618 -627 0
-618 -628 0
-618 -629 0
-618 -630 0
-619 -621 0
-619 -622 0
-619 -623 0
-619 -624 0
-619 -625 0
-619 -626 0
-619 -627 0
-619 -628 0
-619 -629 0
-620 -622 0
-620 -623 0
-620 -624 0
-620 -625 0
-620 -626 0
-620 -627 0
-620 -628 0
-620 -629 0
-620 -630 0
-621 -631 0
-621 -633 0
-621 -634 0
-621 -636 0
-621 -637 0
-621 -638 0
-621 -639 0
-621 -640 0
-622 -631 0
-622 -632 0
-622 -634 0
-622 -635 0
-622 -636 0
-622 -637 0
-622 -638 0
-622 -639 0
-622 -640 0
-623 -631 0
-623 -632 0
-623 -633 0
-623 -635 0
-623 -636 0
-623 -637 0
-623 -638 0
-623 -639 0
-623 -640 0
-624 -632 0
-624 -633 0
-624 -634 0
-624 -635 0
-624 -636 0
-624 -637 0
-624 -638 0
-624 -639 0
-624 -640 0
-625 -631 0
-625 -632 0
-625 -633 0
-625 -634 0
-625 -635 0
-625 -637 0
-625 -638 0
-625 -640 0
-626 -631 0
-626 -632 0
-626 -633 0
-626 -634 0
-626 -635 0
-626 -636 0
-626 -638 0
-626 -639 0
-626 -640 0
-627 -631 0
-627 -632 0
-627 -633 0
-627 -634 0
-627 -635 0
-627 -636 0
-627 -637 0
-627 -639 0
-627 -640 0
-628 -631 0
-628 -633 0
-628 -634 0
-628 -636 0
-628 -637 0
-628 -638 0
-628 -639 0
-628 -640 0
-629 -631 0
-629 -632 0
-629 -633 0
-629 -634 0
-629 -635 0
-629 -636 0
-629 -637 0
-629 -638 0
-629 -639 0
-630 -632 0
-630 -633 0
-630 -634 0
-630 -635 0
-630 -636 0
-630 -637 0
-630 -638 0
-630 -639 0
-630 -640 0
