p cnf 1440 29328
1 2 3 4 5 6 7 8 9 10 0
-1 -2 0
-1 -3 0
-1 -4 0
-1 -5 0
-1 -6 0
-1 -7 0
-1 -8 0
-1 -9 0
-1 -10 0
-2 -3 0
-2 -4 0
-2 -5 0
-2 -6 0
-2 -7 0
-2 -8 0
-2 -9 0
-2 -10 0
-3 -4 0
-3 -5 0
-3 -6 0
-3 -7 0
-3 -8 0
-3 -9 0
-3 -10 0
-4 -5 0
-4 -6 0
-4 -7 0
-4 -8 0
-4 -9 0
-4 -10 0
-5 -6 0
-5 -7 0
-5 -8 0
-5 -9 0
-5 -10 0
-6 -7 0
-6 -8 0
-6 -9 0
-6 -10 0
-7 -8 0
-7 -9 0
-7 -10 0
-8 -9 0
-8 -10 0
-9 -10 0
11 12 13 14 15 16 17 18 19 20 0
-11 -12 0
-11 -13 0
-11 -14 0
-11 -15 0
-11 -16 0
-11 -17 0
-11 -18 0
-11 -19 0
-11 -20 0
-12 -13 0
-12 -14 0
-12 -15 0
-12 -16 0
-12 -17 0
-12 -18 0
-12 -19 0
-12 -20 0
-13 -14 0
-13 -15 0
-13 -16 0
-13 -17 0
-13 -18 0
-13 -19 0
-13 -20 0
-14 -15 0
-14 -16 0
-14 -17 0
-14 -18 0
-14 -19 0
-14 -20 0
-15 -16 0
-15 -17 0
-15 -18 0
-15 -19 0
-15 -20 0
-16 -17 0
-16 -18 0
-16 -19 0
-16 -20 0
-17 -18 0
-17 -19 0
-17 -20 0
-18 -19 0
-18 -20 0
-19 -20 0
21 22 23 24 25 26 27 28 29 30 0
-21 -22 0
-21 -23 0
-21 -24 0
-21 -25 0
-21 -26 0
-21 -27 0
-21 -28 0
-21 -29 0
-21 -30 0
-22 -23 0
-22 -24 0
-22 -25 0
-22 -26 0
-22 -27 0
-22 -28 0
-22 -29 0
-22 -30 0
-23 -24 0
-23 -25 0
-23 -26 0
-23 -27 0
-23 -28 0
-23 -29 0
-23 -30 0
-24 -25 0
-24 -26 0
-24 -27 0
-24 -28 0
-24 -29 0
-24 -30 0
-25 -26 0
-25 -27 0
-25 -28 0
-25 -29 0
-25 -30 0
-26 -27 0
-26 -28 0
-26 -29 0
-26 -30 0
-27 -28 0
-27 -29 0
-27 -30 0
-28 -29 0
-28 -30 0
-29 -30 0
31 32 33 34 35 36 37 38 39 40 0
-31 -32 0
-31 -33 0
-31 -34 0
-31 -35 0
-31 -36 0
-31 -37 0
-31 -38 0
-31 -39 0
-31 -40 0
-32 -33 0
-32 -34 0
-32 -35 0
-32 -36 0
-32 -37 0
-32 -38 0
-32 -39 0
-32 -40 0
-33 -34 0
-33 -35 0
-33 -36 0
-33 -37 0
-33 -38 0
-33 -39 0
-33 -40 0
-34 -35 0
-34 -36 0
-34 -37 0
-34 -38 0
-34 -39 0
-34 -40 0
-35 -36 0
-35 -37 0
-35 -38 0
-35 -39 0
-35 -40 0
-36 -37 0
-36 -38 0
-36 -39 0
-36 -40 0
-37 -38 0
-37 -39 0
-37 -40 0
-38 -39 0
-38 -40 0
-39 -40 0
41 42 43 44 45 46 47 48 49 50 0
-41 -42 0
-41 -43 0
-41 -44 0
-41 -45 0
-41 -46 0
-41 -47 0
-41 -48 0
-41 -49 0
-41 -50 0
-42 -43 0
-42 -44 0
-42 -45 0
-42 -46 0
-42 -47 0
-42 -48 0
-42 -49 0
-42 -50 0
-43 -44 0
-43 -45 0
-43 -46 0
-43 -47 0
-43 -48 0
-43 -49 0
-43 -50 0
-44 -45 0
-44 -46 0
-44 -47 0
-44 -48 0
-44 -49 0
-44 -50 0
-45 -46 0
-45 -47 0
-45 -48 0
-45 -49 0
-45 -50 0
-46 -47 0
-46 -48 0
-46 -49 0
-46 -50 0
-47 -48 0
-47 -49 0
-47 -50 0
-48 -49 0
-48 -50 0
-49 -50 0
51 52 53 54 55 56 57 58 59 60 0
-51 -52 0
-51 -53 0
-51 -54 0
-51 -55 0
-51 -56 0
-51 -57 0
-51 -58 0
-51 -59 0
-51 -60 0
-52 -53 0
-52 -54 0
-52 -55 0
-52 -56 0
-52 -57 0
-52 -58 0
-52 -59 0
-52 -60 0
-53 -54 0
-53 -55 0
-53 -56 0
-53 -57 0
-53 -58 0
-53 -59 0
-53 -60 0
-54 -55 0
-54 -56 0
-54 -57 0
-54 -58 0
-54 -59 0
-54 -60 0
-55 -56 0
-55 -57 0
-55 -58 0
-55 -59 0
-55 -60 0
-56 -57 0
-56 -58 0
-56 -59 0
-56 -60 0
-57 -58 0
-57 -59 0
-57 -60 0
-58 -59 0
-58 -60 0
-59 -60 0
61 62 63 64 65 66 67 68 69 70 0
-61 -62 0
-61 -63 0
-61 -64 0
-61 -65 0
-61 -66 0
-61 -67 0
-61 -68 0
-61 -69 0
-61 -70 0
-62 -63 0
-62 -64 0
-62 -65 0
-62 -66 0
-62 -67 0
-62 -68 0
-62 -69 0
-62 -70 0
-63 -64 0
-63 -65 0
-63 -66 0
-63 -67 0
-63 -68 0
-63 -69 0
-63 -70 0
-64 -65 0
-64 -66 0
-64 -67 0
-64 -68 0
-64 -69 0
-64 -70 0
-65 -66 0
-65 -67 0
-65 -68 0
-65 -69 0
-65 -70 0
-66 -67 0
-66 -68 0
-66 -69 0
-66 -70 0
-67 -68 0
-67 -69 0
-67 -70 0
-68 -69 0
-68 -70 0
-69 -70 0
71 72 73 74 75 76 77 78 79 80 0
-71 -72 0
-71 -73 0
-71 -74 0
-71 -75 0
-71 -76 0
-71 -77 0
-71 -78 0
-71 -79 0
-71 -80 0
-72 -73 0
-72 -74 0
-72 -75 0
-72 -76 0
-72 -77 0
-72 -78 0
-72 -79 0
-72 -80 0
-73 -74 0
-73 -75 0
-73 -76 0
-73 -77 0
-73 -78 0
-73 -79 0
-73 -80 0
-74 -75 0
-74 -76 0
-74 -77 0
-74 -78 0
-74 -79 0
-74 -80 0
-75 -76 0
-75 -77 0
-75 -78 0
-75 -79 0
-75 -80 0
-76 -77 0
-76 -78 0
-76 -79 0
-76 -80 0
-77 -78 0
-77 -79 0
-77 -80 0
-78 -79 0
-78 -80 0
-79 -80 0
81 82 83 84 85 86 87 88 89 90 0
-81 -82 0
-81 -83 0
-81 -84 0
-81 -85 0
-81 -86 0
-81 -87 0
-81 -88 0
-81 -89 0
-81 -90 0
-82 -83 0
-82 -84 0
-82 -85 0
-82 -86 0
-82 -87 0
-82 -88 0
-82 -89 0
-82 -90 0
-83 -84 0
-83 -85 0
-83 -86 0
-83 -87 0
-83 -88 0
-83 -89 0
-83 -90 0
-84 -85 0
-84 -86 0
-84 -87 0
-84 -88 0
-84 -89 0
-84 -90 0
-85 -86 0
-85 -87 0
-85 -88 0
-85 -89 0
-85 -90 0
-86 -87 0
-86 -88 0
-86 -89 0
-86 -90 0
-87 -88 0
-87 -89 0
-87 -90 0
-88 -89 0
-88 -90 0
-89 -90 0
91 92 93 94 95 96 97 98 99 100 0
-91 -92 0
-91 -93 0
-91 -94 0
-91 -95 0
-91 -96 0
-91 -97 0
-91 -98 0
-91 -99 0
-91 -100 0
-92 -93 0
-92 -94 0
-92 -95 0
-92 -96 0
-92 -97 0
-92 -98 0
-92 -99 0
-92 -100 0
-93 -94 0
-93 -95 0
-93 -96 0
-93 -97 0
-93 -98 0
-93 -99 0
-93 -100 0
-94 -95 0
-94 -96 0
-94 -97 0
-94 -98 0
-94 -99 0
-94 -100 0
-95 -96 0
-95 -97 0
-95 -98 0
-95 -99 0
-95 -100 0
-96 -97 0
-96 -98 0
-96 -99 0
-96 -100 0
-97 -98 0
-97 -99 0
-97 -100 0
-98 -99 0
-98 -100 0
-99 -100 0
101 102 103 104 105 106 107 108 109 110 0
-101 -102 0
-101 -103 0
-101 -104 0
-101 -105 0
-101 -106 0
-101 -107 0
-101 -108 0
-101 -109 0
-101 -110 0
-102 -103 0
-102 -104 0
-102 -105 0
-102 -106 0
-102 -107 0
-102 -108 0
-102 -109 0
-102 -110 0
-103 -104 0
-103 -105 0
-103 -106 0
-103 -107 0
-103 -108 0
-103 -109 0
-103 -110 0
-104 -105 0
-104 -106 0
-104 -107 0
-104 -108 0
-104 -109 0
-104 -110 0
-105 -106 0
-105 -107 0
-105 -108 0
-105 -109 0
-105 -110 0
-106 -107 0
-106 -108 0
-106 -109 0
-106 -110 0
-107 -108 0
-107 -109 0
-107 -110 0
-108 -109 0
-108 -110 0
-109 -110 0
111 112 113 114 115 116 117 118 119 120 0
-111 -112 0
-111 -113 0
-111 -114 0
-111 -115 0
-111 -116 0
-111 -117 0
-111 -118 0
-111 -119 0
-111 -120 0
-112 -113 0
-112 -114 0
-112 -115 0
-112 -116 0
-112 -117 0
-112 -118 0
-112 -119 0
-112 -120 0
-113 -114 0
-113 -115 0
-113 -116 0
-113 -117 0
-113 -118 0
-113 -119 0
-113 -120 0
-114 -115 0
-114 -116 0
-114 -117 0
-114 -118 0
-114 -119 0
-114 -120 0
-115 -116 0
-115 -117 0
-115 -118 0
-115 -119 0
-115 -120 0
-116 -117 0
-116 -118 0
-116 -119 0
-116 -120 0
-117 -118 0
-117 -119 0
-117 -120 0
-118 -119 0
-118 -120 0
-119 -120 0
121 122 123 124 125 126 127 128 129 130 0
-121 -122 0
-121 -123 0
-121 -124 0
-121 -125 0
-121 -126 0
-121 -127 0
-121 -128 0
-121 -129 0
-121 -130 0
-122 -123 0
-122 -124 0
-122 -125 0
-122 -126 0
-122 -127 0
-122 -128 0
-122 -129 0
-122 -130 0
-123 -124 0
-123 -125 0
-123 -126 0
-123 -127 0
-123 -128 0
-123 -129 0
-123 -130 0
-124 -125 0
-124 -126 0
-124 -127 0
-124 -128 0
-124 -129 0
-124 -130 0
-125 -126 0
-125 -127 0
-125 -128 0
-125 -129 0
-125 -130 0
-126 -127 0
-126 -128 0
-126 -129 0
-126 -130 0
-127 -128 0
-127 -129 0
-127 -130 0
-128 -129 0
-128 -130 0
-129 -130 0
131 132 133 134 135 136 137 138 139 140 0
-131 -132 0
-131 -133 0
-131 -134 0
-131 -135 0
-131 -136 0
-131 -137 0
-131 -138 0
-131 -139 0
-131 -140 0
-132 -133 0
-132 -134 0
-132 -135 0
-132 -136 0
-132 -137 0
-132 -138 0
-132 -139 0
-132 -140 0
-133 -134 0
-133 -135 0
-133 -136 0
-133 -137 0
-133 -138 0
-133 -139 0
-133 -140 0
-134 -135 0
-134 -136 0
-134 -137 0
-134 -138 0
-134 -139 0
-134 -140 0
-135 -136 0
-135 -137 0
-135 -138 0
-135 -139 0
-135 -140 0
-136 -137 0
-136 -138 0
-136 -139 0
-136 -140 0
-137 -138 0
-137 -139 0
-137 -140 0
-138 -139 0
-138 -140 0
-139 -140 0
141 142 143 144 145 146 147 148 149 150 0
-141 -142 0
-141 -143 0
-141 -144 0
-141 -145 0
-141 -146 0
-141 -147 0
-141 -148 0
-141 -149 0
-141 -150 0
-142 -143 0
-142 -144 0
-142 -145 0
-142 -146 0
-142 -147 0
-142 -148 0
-142 -149 0
-142 -150 0
-143 -144 0
-143 -145 0
-143 -146 0
-143 -147 0
-143 -148 0
-143 -149 0
-143 -150 0
-144 -145 0
-144 -146 0
-144 -147 0
-144 -148 0
-144 -149 0
-144 -150 0
-145 -146 0
-145 -147 0
-145 -148 0
-145 -149 0
-145 -150 0
-146 -147 0
-146 -148 0
-146 -149 0
-146 -150 0
-147 -148 0
-147 -149 0
-147 -150 0
-148 -149 0
-148 -150 0
-149 -150 0
151 152 153 154 155 156 157 158 159 160 0
-151 -152 0
-151 -153 0
-151 -154 0
-151 -155 0
-151 -156 0
-151 -157 0
-151 -158 0
-151 -159 0
-151 -160 0
-152 -153 0
-152 -154 0
-152 -155 0
-152 -156 0
-152 -157 0
-152 -158 0
-152 -159 0
-152 -160 0
-153 -154 0
-153 -155 0
-153 -156 0
-153 -157 0
-153 -158 0
-153 -159 0
-153 -160 0
-154 -155 0
-154 -156 0
-154 -157 0
-154 -158 0
-154 -159 0
-154 -160 0
-155 -156 0
-155 -157 0
-155 -158 0
-155 -159 0
-155 -160 0
-156 -157 0
-156 -158 0
-156 -159 0
-156 -160 0
-157 -158 0
-157 -159 0
-157 -160 0
-158 -159 0
-158 -160 0
-159 -160 0
161 162 163 164 165 166 167 168 169 170 0
-161 -162 0
-161 -163 0
-161 -164 0
-161 -165 0
-161 -166 0
-161 -167 0
-161 -168 0
-161 -169 0
-161 -170 0
-162 -163 0
-162 -164 0
-162 -165 0
-162 -166 0
-162 -167 0
-162 -168 0
-162 -169 0
-162 -170 0
-163 -164 0
-163 -165 0
-163 -166 0
-163 -167 0
-163 -168 0
-163 -169 0
-163 -170 0
-164 -165 0
-164 -166 0
-164 -167 0
-164 -168 0
-164 -169 0
-164 -170 0
-165 -166 0
-165 -167 0
-165 -168 0
-165 -169 0
-165 -170 0
-166 -167 0
-166 -168 0
-166 -169 0
-166 -170 0
-167 -168 0
-167 -169 0
-167 -170 0
-168 -169 0
-168 -170 0
-169 -170 0
171 172 173 174 175 176 177 178 179 180 0
-171 -172 0
-171 -173 0
-171 -174 0
-171 -175 0
-171 -176 0
-171 -177 0
-171 -178 0
-171 -179 0
-171 -180 0
-172 -173 0
-172 -174 0
-172 -175 0
-172 -176 0
-172 -177 0
-172 -178 0
-172 -179 0
-172 -180 0
-173 -174 0
-173 -175 0
-173 -176 0
-173 -177 0
-173 -178 0
-173 -179 0
-173 -180 0
-174 -175 0
-174 -176 0
-174 -177 0
-174 -178 0
-174 -179 0
-174 -180 0
-175 -176 0
-175 -177 0
-175 -178 0
-175 -179 0
-175 -180 0
-176 -177 0
-176 -178 0
-176 -179 0
-176 -180 0
-177 -178 0
-177 -179 0
-177 -180 0
-178 -179 0
-178 -180 0
-179 -180 0
181 182 183 184 185 186 187 188 189 190 0
-181 -182 0
-181 -183 0
-181 -184 0
-181 -185 0
-181 -186 0
-181 -187 0
-181 -188 0
-181 -189 0
-181 -190 0
-182 -183 0
-182 -184 0
-182 -185 0
-182 -186 0
-182 -187 0
-182 -188 0
-182 -189 0
-182 -190 0
-183 -184 0
-183 -185 0
-183 -186 0
-183 -187 0
-183 -188 0
-183 -189 0
-183 -190 0
-184 -185 0
-184 -186 0
-184 -187 0
-184 -188 0
-184 -189 0
-184 -190 0
-185 -186 0
-185 -187 0
-185 -188 0
-185 -189 0
-185 -190 0
-186 -187 0
-186 -188 0
-186 -189 0
-186 -190 0
-187 -188 0
-187 -189 0
-187 -190 0
-188 -189 0
-188 -190 0
-189 -190 0
191 192 193 194 195 196 197 198 199 200 0
-191 -192 0
-191 -193 0
-191 -194 0
-191 -195 0
-191 -196 0
-191 -197 0
-191 -198 0
-191 -199 0
-191 -200 0
-192 -193 0
-192 -194 0
-192 -195 0
-192 -196 0
-192 -197 0
-192 -198 0
-192 -199 0
-192 -200 0
-193 -194 0
-193 -195 0
-193 -196 0
-193 -197 0
-193 -198 0
-193 -199 0
-193 -200 0
-194 -195 0
-194 -196 0
-194 -197 0
-194 -198 0
-194 -199 0
-194 -200 0
-195 -196 0
-195 -197 0
-195 -198 0
-195 -199 0
-195 -200 0
-196 -197 0
-196 -198 0
-196 -199 0
-196 -200 0
-197 -198 0
-197 -199 0
-197 -200 0
-198 -199 0
-198 -200 0
-199 -200 0
201 202 203 204 205 206 207 208 209 210 0
-201 -202 0
-201 -203 0
-201 -204 0
-201 -205 0
-201 -206 0
-201 -207 0
-201 -208 0
-201 -209 0
-201 -210 0
-202 -203 0
-202 -204 0
-202 -205 0
-202 -206 0
-202 -207 0
-202 -208 0
-202 -209 0
-202 -210 0
-203 -204 0
-203 -205 0
-203 -206 0
-203 -207 0
-203 -208 0
-203 -209 0
-203 -210 0
-204 -205 0
-204 -206 0
-204 -207 0
-204 -208 0
-204 -209 0
-204 -210 0
-205 -206 0
-205 -207 0
-205 -208 0
-205 -209 0
-205 -210 0
-206 -207 0
-206 -208 0
-206 -209 0
-206 -210 0
-207 -208 0
-207 -209 0
-207 -210 0
-208 -209 0
-208 -210 0
-209 -210 0
211 212 213 214 215 216 217 218 219 220 0
-211 -212 0
-211 -213 0
-211 -214 0
-211 -215 0
-211 -216 0
-211 -217 0
-211 -218 0
-211 -219 0
-211 -220 0
-212 -213 0
-212 -214 0
-212 -215 0
-212 -216 0
-212 -217 0
-212 -218 0
-212 -219 0
-212 -220 0
-213 -214 0
-213 -215 0
-213 -216 0
-213 -217 0
-213 -218 0
-213 -219 0
-213 -220 0
-214 -215 0
-214 -216 0
-214 -217 0
-214 -218 0
-214 -219 0
-214 -220 0
-215 -216 0
-215 -217 0
-215 -218 0
-215 -219 0
-215 -220 0
-216 -217 0
-216 -218 0
-216 -219 0
-216 -220 0
-217 -218 0
-217 -219 0
-217 -220 0
-218 -219 0
-218 -220 0
-219 -220 0
221 222 223 224 225 226 227 228 229 230 0
-221 -222 0
-221 -223 0
-221 -224 0
-221 -225 0
-221 -226 0
-221 -227 0
-221 -228 0
-221 -229 0
-221 -230 0
-222 -223 0
-222 -224 0
-222 -225 0
-222 -226 0
-222 -227 0
-222 -228 0
-222 -229 0
-222 -230 0
-223 -224 0
-223 -225 0
-223 -226 0
-223 -227 0
-223 -228 0
-223 -229 0
-223 -230 0
-224 -225 0
-224 -226 0
-224 -227 0
-224 -228 0
-224 -229 0
-224 -230 0
-225 -226 0
-225 -227 0
-225 -228 0
-225 -229 0
-225 -230 0
-226 -227 0
-226 -228 0
-226 -229 0
-226 -230 0
-227 -228 0
-227 -229 0
-227 -230 0
-228 -229 0
-228 -230 0
-229 -230 0
231 232 233 234 235 236 237 238 239 240 0
-231 -232 0
-231 -233 0
-231 -234 0
-231 -235 0
-231 -236 0
-231 -237 0
-231 -238 0
-231 -239 0
-231 -240 0
-232 -233 0
-232 -234 0
-232 -235 0
-232 -236 0
-232 -237 0
-232 -238 0
-232 -239 0
-232 -240 0
-233 -234 0
-233 -235 0
-233 -236 0
-233 -237 0
-233 -238 0
-233 -239 0
-233 -240 0
-234 -235 0
-234 -236 0
-234 -237 0
-234 -238 0
-234 -239 0
-234 -240 0
-235 -236 0
-235 -237 0
-235 -238 0
-235 -239 0
-235 -240 0
-236 -237 0
-236 -238 0
-236 -239 0
-236 -240 0
-237 -238 0
-237 -239 0
-237 -240 0
-238 -239 0
-238 -240 0
-239 -240 0
241 242 243 244 245 246 247 248 249 250 0
-241 -242 0
-241 -243 0
-241 -244 0
-241 -245 0
-241 -246 0
-241 -247 0
-241 -248 0
-241 -249 0
-241 -250 0
-242 -243 0
-242 -244 0
-242 -245 0
-242 -246 0
-242 -247 0
-242 -248 0
-242 -249 0
-242 -250 0
-243 -244 0
-243 -245 0
-243 -246 0
-243 -247 0
-243 -248 0
-243 -249 0
-243 -250 0
-244 -245 0
-244 -246 0
-244 -247 0
-244 -248 0
-244 -249 0
-244 -250 0
-245 -246 0
-245 -247 0
-245 -248 0
-245 -249 0
-245 -250 0
-246 -247 0
-246 -248 0
-246 -249 0
-246 -250 0
-247 -248 0
-247 -249 0
-247 -250 0
-248 -249 0
-248 -250 0
-249 -250 0
251 252 253 254 255 256 257 258 259 260 0
-251 -252 0
-251 -253 0
-251 -254 0
-251 -255 0
-251 -256 0
-251 -257 0
-251 -258 0
-251 -259 0
-251 -260 0
-252 -253 0
-252 -254 0
-252 -255 0
-252 -256 0
-252 -257 0
-252 -258 0
-252 -259 0
-252 -260 0
-253 -254 0
-253 -255 0
-253 -256 0
-253 -257 0
-253 -258 0
-253 -259 0
-253 -260 0
-254 -255 0
-254 -256 0
-254 -257 0
-254 -258 0
-254 -259 0
-254 -260 0
-255 -256 0
-255 -257 0
-255 -258 0
-255 -259 0
-255 -260 0
-256 -257 0
-256 -258 0
-256 -259 0
-256 -260 0
-257 -258 0
-257 -259 0
-257 -260 0
-258 -259 0
-258 -260 0
-259 -260 0
261 262 263 264 265 266 267 268 269 270 0
-261 -262 0
-261 -263 0
-261 -264 0
-261 -265 0
-261 -266 0
-261 -267 0
-261 -268 0
-261 -269 0
-261 -270 0
-262 -263 0
-262 -264 0
-262 -265 0
-262 -266 0
-262 -267 0
-262 -268 0
-262 -269 0
-262 -270 0
-263 -264 0
-263 -265 0
-263 -266 0
-263 -267 0
-263 -268 0
-263 -269 0
-263 -270 0
-264 -265 0
-264 -266 0
-264 -267 0
-264 -268 0
-264 -269 0
-264 -270 0
-265 -266 0
-265 -267 0
-265 -268 0
-265 -269 0
-265 -270 0
-266 -267 0
-266 -268 0
-266 -269 0
-266 -270 0
-267 -268 0
-267 -269 0
-267 -270 0
-268 -269 0
-268 -270 0
-269 -270 0
271 272 273 274 275 276 277 278 279 280 0
-271 -272 0
-271 -273 0
-271 -274 0
-271 -275 0
-271 -276 0
-271 -277 0
-271 -278 0
-271 -279 0
-271 -280 0
-272 -273 0
-272 -274 0
-272 -275 0
-272 -276 0
-272 -277 0
-272 -278 0
-272 -279 0
-272 -280 0
-273 -274 0
-273 -275 0
-273 -276 0
-273 -277 0
-273 -278 0
-273 -279 0
-273 -280 0
-274 -275 0
-274 -276 0
-274 -277 0
-274 -278 0
-274 -279 0
-274 -280 0
-275 -276 0
-275 -277 0
-275 -278 0
-275 -279 0
-275 -280 0
-276 -277 0
-276 -278 0
-276 -279 0
-276 -280 0
-277 -278 0
-277 -279 0
-277 -280 0
-278 -279 0
-278 -280 0
-279 -280 0
281 282 283 284 285 286 287 288 289 290 0
-281 -282 0
-281 -283 0
-281 -284 0
-281 -285 0
-281 -286 0
-281 -287 0
-281 -288 0
-281 -289 0
-281 -290 0
-282 -283 0
-282 -284 0
-282 -285 0
-282 -286 0
-282 -287 0
-282 -288 0
-282 -289 0
-282 -290 0
-283 -284 0
-283 -285 0
-283 -286 0
-283 -287 0
-283 -288 0
-283 -289 0
-283 -290 0
-284 -285 0
-284 -286 0
-284 -287 0
-284 -288 0
-284 -289 0
-284 -290 0
-285 -286 0
-285 -287 0
-285 -288 0
-285 -289 0
-285 -290 0
-286 -287 0
-286 -288 0
-286 -289 0
-286 -290 0
-287 -288 0
-287 -289 0
-287 -290 0
-288 -289 0
-288 -290 0
-289 -290 0
291 292 293 294 295 296 297 298 299 300 0
-291 -292 0
-291 -293 0
-291 -294 0
-291 -295 0
-291 -296 0
-291 -297 0
-291 -298 0
-291 -299 0
-291 -300 0
-292 -293 0
-292 -294 0
-292 -295 0
-292 -296 0
-292 -297 0
-292 -298 0
-292 -299 0
-292 -300 0
-293 -294 0
-293 -295 0
-293 -296 0
-293 -297 0
-293 -298 0
-293 -299 0
-293 -300 0
-294 -295 0
-294 -296 0
-294 -297 0
-294 -298 0
-294 -299 0
-294 -300 0
-295 -296 0
-295 -297 0
-295 -298 0
-295 -299 0
-295 -300 0
-296 -297 0
-296 -298 0
-296 -299 0
-296 -300 0
-297 -298 0
-297 -299 0
-297 -300 0
-298 -299 0
-298 -300 0
-299 -300 0
301 302 303 304 305 306 307 308 309 310 0
-301 -302 0
-301 -303 0
-301 -304 0
-301 -305 0
-301 -306 0
-301 -307 0
-301 -308 0
-301 -309 0
-301 -310 0
-302 -303 0
-302 -304 0
-302 -305 0
-302 -306 0
-302 -307 0
-302 -308 0
-302 -309 0
-302 -310 0
-303 -304 0
-303 -305 0
-303 -306 0
-303 -307 0
-303 -308 0
-303 -309 0
-303 -310 0
-304 -305 0
-304 -306 0
-304 -307 0
-304 -308 0
-304 -309 0
-304 -310 0
-305 -306 0
-305 -307 0
-305 -308 0
-305 -309 0
-305 -310 0
-306 -307 0
-306 -308 0
-306 -309 0
-306 -310 0
-307 -308 0
-307 -309 0
-307 -310 0
-308 -309 0
-308 -310 0
-309 -310 0
311 312 313 314 315 316 317 318 319 320 0
-311 -312 0
-311 -313 0
-311 -314 0
-311 -315 0
-311 -316 0
-311 -317 0
-311 -318 0
-311 -319 0
-311 -320 0
-312 -313 0
-312 -314 0
-312 -315 0
-312 -316 0
-312 -317 0
-312 -318 0
-312 -319 0
-312 -320 0
-313 -314 0
-313 -315 0
-313 -316 0
-313 -317 0
-313 -318 0
-313 -319 0
-313 -320 0
-314 -315 0
-314 -316 0
-314 -317 0
-314 -318 0
-314 -319 0
-314 -320 0
-315 -316 0
-315 -317 0
-315 -318 0
-315 -319 0
-315 -320 0
-316 -317 0
-316 -318 0
-316 -319 0
-316 -320 0
-317 -318 0
-317 -319 0
-317 -320 0
-318 -319 0
-318 -320 0
-319 -320 0
321 322 323 324 325 326 327 328 329 330 0
-321 -322 0
-321 -323 0
-321 -324 0
-321 -325 0
-321 -326 0
-321 -327 0
-321 -328 0
-321 -329 0
-321 -330 0
-322 -323 0
-322 -324 0
-322 -325 0
-322 -326 0
-322 -327 0
-322 -328 0
-322 -329 0
-322 -330 0
-323 -324 0
-323 -325 0
-323 -326 0
-323 -327 0
-323 -328 0
-323 -329 0
-323 -330 0
-324 -325 0
-324 -326 0
-324 -327 0
-324 -328 0
-324 -329 0
-324 -330 0
-325 -326 0
-325 -327 0
-325 -328 0
-325 -329 0
-325 -330 0
-326 -327 0
-326 -328 0
-326 -329 0
-326 -330 0
-327 -328 0
-327 -329 0
-327 -330 0
-328 -329 0
-328 -330 0
-329 -330 0
331 332 333 334 335 336 337 338 339 340 0
-331 -332 0
-331 -333 0
-331 -334 0
-331 -335 0
-331 -336 0
-331 -337 0
-331 -338 0
-331 -339 0
-331 -340 0
-332 -333 0
-332 -334 0
-332 -335 0
-332 -336 0
-332 -337 0
-332 -338 0
-332 -339 0
-332 -340 0
-333 -334 0
-333 -335 0
-333 -336 0
-333 -337 0
-333 -338 0
-333 -339 0
-333 -340 0
-334 -335 0
-334 -336 0
-334 -337 0
-334 -338 0
-334 -339 0
-334 -340 0
-335 -336 0
-335 -337 0
-335 -338 0
-335 -339 0
-335 -340 0
-336 -337 0
-336 -338 0
-336 -339 0
-336 -340 0
-337 -338 0
-337 -339 0
-337 -340 0
-338 -339 0
-338 -340 0
-339 -340 0
341 342 343 344 345 346 347 348 349 350 0
-341 -342 0
-341 -343 0
-341 -344 0
-341 -345 0
-341 -346 0
-341 -347 0
-341 -348 0
-341 -349 0
-341 -350 0
-342 -343 0
-342 -344 0
-342 -345 0
-342 -346 0
-342 -347 0
-342 -348 0
-342 -349 0
-342 -350 0
-343 -344 0
-343 -345 0
-343 -346 0
-343 -347 0
-343 -348 0
-343 -349 0
-343 -350 0
-344 -345 0
-344 -346 0
-344 -347 0
-344 -348 0
-344 -349 0
-344 -350 0
-345 -346 0
-345 -347 0
-345 -348 0
-345 -349 0
-345 -350 0
-346 -347 0
-346 -348 0
-346 -349 0
-346 -350 0
-347 -348 0
-347 -349 0
-347 -350 0
-348 -349 0
-348 -350 0
-349 -350 0
351 352 353 354 355 356 357 358 359 360 0
-351 -352 0
-351 -353 0
-351 -354 0
-351 -355 0
-351 -356 0
-351 -357 0
-351 -358 0
-351 -359 0
-351 -360 0
-352 -353 0
-352 -354 0
-352 -355 0
-352 -356 0
-352 -357 0
-352 -358 0
-352 -359 0
-352 -360 0
-353 -354 0
-353 -355 0
-353 -356 0
-353 -357 0
-353 -358 0
-353 -359 0
-353 -360 0
-354 -355 0
-354 -356 0
-354 -357 0
-354 -358 0
-354 -359 0
-354 -360 0
-355 -356 0
-355 -357 0
-355 -358 0
-355 -359 0
-355 -360 0
-356 -357 0
-356 -358 0
-356 -359 0
-356 -360 0
-357 -358 0
-357 -359 0
-357 -360 0
-358 -359 0
-358 -360 0
-359 -360 0
361 362 363 364 365 366 367 368 369 370 0
-361 -362 0
-361 -363 0
-361 -364 0
-361 -365 0
-361 -366 0
-361 -367 0
-361 -368 0
-361 -369 0
-361 -370 0
-362 -363 0
-362 -364 0
-362 -365 0
-362 -366 0
-362 -367 0
-362 -368 0
-362 -369 0
-362 -370 0
-363 -364 0
-363 -365 0
-363 -366 0
-363 -367 0
-363 -368 0
-363 -369 0
-363 -370 0
-364 -365 0
-364 -366 0
-364 -367 0
-364 -368 0
-364 -369 0
-364 -370 0
-365 -366 0
-365 -367 0
-365 -368 0
-365 -369 0
-365 -370 0
-366 -367 0
-366 -368 0
-366 -369 0
-366 -370 0
-367 -368 0
-367 -369 0
-367 -370 0
-368 -369 0
-368 -370 0
-369 -370 0
371 372 373 374 375 376 377 378 379 380 0
-371 -372 0
-371 -373 0
-371 -374 0
-371 -375 0
-371 -376 0
-371 -377 0
-371 -378 0
-371 -379 0
-371 -380 0
-372 -373 0
-372 -374 0
-372 -375 0
-372 -376 0
-372 -377 0
-372 -378 0
-372 -379 0
-372 -380 0
-373 -374 0
-373 -375 0
-373 -376 0
-373 -377 0
-373 -378 0
-373 -379 0
-373 -380 0
-374 -375 0
-374 -376 0
-374 -377 0
-374 -378 0
-374 -379 0
-374 -380 0
-375 -376 0
-375 -377 0
-375 -378 0
-375 -379 0
-375 -380 0
-376 -377 0
-376 -378 0
-376 -379 0
-376 -380 0
-377 -378 0
-377 -379 0
-377 -380 0
-378 -379 0
-378 -380 0
-379 -380 0
381 382 383 384 385 386 387 388 389 390 0
-381 -382 0
-381 -383 0
-381 -384 0
-381 -385 0
-381 -386 0
-381 -387 0
-381 -388 0
-381 -389 0
-381 -390 0
-382 -383 0
-382 -384 0
-382 -385 0
-382 -386 0
-382 -387 0
-382 -388 0
-382 -389 0
-382 -390 0
-383 -384 0
-383 -385 0
-383 -386 0
-383 -387 0
-383 -388 0
-383 -389 0
-383 -390 0
-384 -385 0
-384 -386 0
-384 -387 0
-384 -388 0
-384 -389 0
-384 -390 0
-385 -386 0
-385 -387 0
-385 -388 0
-385 -389 0
-385 -390 0
-386 -387 0
-386 -388 0
-386 -389 0
-386 -390 0
-387 -388 0
-387 -389 0
-387 -390 0
-388 -389 0
-388 -390 0
-389 -390 0
391 392 393 394 395 396 397 398 399 400 0
-391 -392 0
-391 -393 0
-391 -394 0
-391 -395 0
-391 -396 0
-391 -397 0
-391 -398 0
-391 -399 0
-391 -400 0
-392 -393 0
-392 -394 0
-392 -395 0
-392 -396 0
-392 -397 0
-392 -398 0
-392 -399 0
-392 -400 0
-393 -394 0
-393 -395 0
-393 -396 0
-393 -397 0
-393 -398 0
-393 -399 0
-393 -400 0
-394 -395 0
-394 -396 0
-394 -397 0
-394 -398 0
-394 -399 0
-394 -400 0
-395 -396 0
-395 -397 0
-395 -398 0
-395 -399 0
-395 -400 0
-396 -397 0
-396 -398 0
-396 -399 0
-396 -400 0
-397 -398 0
-397 -399 0
-397 -400 0
-398 -399 0
-398 -400 0
-399 -400 0
401 402 403 404 405 406 407 408 409 410 0
-401 -402 0
-401 -403 0
-401 -404 0
-401 -405 0
-401 -406 0
-401 -407 0
-401 -408 0
-401 -409 0
-401 -410 0
-402 -403 0
-402 -404 0
-402 -405 0
-402 -406 0
-402 -407 0
-402 -408 0
-402 -409 0
-402 -410 0
-403 -404 0
-403 -405 0
-403 -406 0
-403 -407 0
-403 -408 0
-403 -409 0
-403 -410 0
-404 -405 0
-404 -406 0
-404 -407 0
-404 -408 0
-404 -409 0
-404 -410 0
-405 -406 0
-405 -407 0
-405 -408 0
-405 -409 0
-405 -410 0
-406 -407 0
-406 -408 0
-406 -409 0
-406 -410 0
-407 -408 0
-407 -409 0
-407 -410 0
-408 -409 0
-408 -410 0
-409 -410 0
411 412 413 414 415 416 417 418 419 420 0
-411 -412 0
-411 -413 0
-411 -414 0
-411 -415 0
-411 -416 0
-411 -417 0
-411 -418 0
-411 -419 0
-411 -420 0
-412 -413 0
-412 -414 0
-412 -415 0
-412 -416 0
-412 -417 0
-412 -418 0
-412 -419 0
-412 -420 0
-413 -414 0
-413 -415 0
-413 -416 0
-413 -417 0
-413 -418 0
-413 -419 0
-413 -420 0
-414 -415 0
-414 -416 0
-414 -417 0
-414 -418 0
-414 -419 0
-414 -420 0
-415 -416 0
-415 -417 0
-415 -418 0
-415 -419 0
-415 -420 0
-416 -417 0
-416 -418 0
-416 -419 0
-416 -420 0
-417 -418 0
-417 -419 0
-417 -420 0
-418 -419 0
-418 -420 0
-419 -420 0
421 422 423 424 425 426 427 428 429 430 0
-421 -422 0
-421 -423 0
-421 -424 0
-421 -425 0
-421 -426 0
-421 -427 0
-421 -428 0
-421 -429 0
-421 -430 0
-422 -423 0
-422 -424 0
-422 -425 0
-422 -426 0
-422 -427 0
-422 -428 0
-422 -429 0
-422 -430 0
-423 -424 0
-423 -425 0
-423 -426 0
-423 -427 0
-423 -428 0
-423 -429 0
-423 -430 0
-424 -425 0
-424 -426 0
-424 -427 0
-424 -428 0
-424 -429 0
-424 -430 0
-425 -426 0
-425 -427 0
-425 -428 0
-425 -429 0
-425 -430 0
-426 -427 0
-426 -428 0
-426 -429 0
-426 -430 0
-427 -428 0
-427 -429 0
-427 -430 0
-428 -429 0
-428 -430 0
-429 -430 0
431 432 433 434 435 436 437 438 439 440 0
-431 -432 0
-431 -433 0
-431 -434 0
-431 -435 0
-431 -436 0
-431 -437 0
-431 -438 0
-431 -439 0
-431 -440 0
-432 -433 0
-432 -434 0
-432 -435 0
-432 -436 0
-432 -437 0
-432 -438 0
-432 -439 0
-432 -440 0
-433 -434 0
-433 -435 0
-433 -436 0
-433 -437 0
-433 -438 0
-433 -439 0
-433 -440 0
-434 -435 0
-434 -436 0
-434 -437 0
-434 -438 0
-434 -439 0
-434 -440 0
-435 -436 0
-435 -437 0
-435 -438 0
-435 -439 0
-435 -440 0
-436 -437 0
-436 -438 0
-436 -439 0
-436 -440 0
-437 -438 0
-437 -439 0
-437 -440 0
-438 -439 0
-438 -440 0
-439 -440 0
441 442 443 444 445 446 447 448 449 450 0
-441 -442 0
-441 -443 0
-441 -444 0
-441 -445 0
-441 -446 0
-441 -447 0
-441 -448 0
-441 -449 0
-441 -450 0
-442 -443 0
-442 -444 0
-442 -445 0
-442 -446 0
-442 -447 0
-442 -448 0
-442 -449 0
-442 -450 0
-443 -444 0
-443 -445 0
-443 -446 0
-443 -447 0
-443 -448 0
-443 -449 0
-443 -450 0
-444 -445 0
-444 -446 0
-444 -447 0
-444 -448 0
-444 -449 0
-444 -450 0
-445 -446 0
-445 -447 0
-445 -448 0
-445 -449 0
-445 -450 0
-446 -447 0
-446 -448 0
-446 -449 0
-446 -450 0
-447 -448 0
-447 -449 0
-447 -450 0
-448 -449 0
-448 -450 0
-449 -450 0
451 452 453 454 455 456 457 458 459 460 0
-451 -452 0
-451 -453 0
-451 -454 0
-451 -455 0
-451 -456 0
-451 -457 0
-451 -458 0
-451 -459 0
-451 -460 0
-452 -453 0
-452 -454 0
-452 -455 0
-452 -456 0
-452 -457 0
-452 -458 0
-452 -459 0
-452 -460 0
-453 -454 0
-453 -455 0
-453 -456 0
-453 -457 0
-453 -458 0
-453 -459 0
-453 -460 0
-454 -455 0
-454 -456 0
-454 -457 0
-454 -458 0
-454 -459 0
-454 -460 0
-455 -456 0
-455 -457 0
-455 -458 0
-455 -459 0
-455 -460 0
-456 -457 0
-456 -458 0
-456 -459 0
-456 -460 0
-457 -458 0
-457 -459 0
-457 -460 0
-458 -459 0
-458 -460 0
-459 -460 0
461 462 463 464 465 466 467 468 469 470 0
-461 -462 0
-461 -463 0
-461 -464 0
-461 -465 0
-461 -466 0
-461 -467 0
-461 -468 0
-461 -469 0
-461 -470 0
-462 -463 0
-462 -464 0
-462 -465 0
-462 -466 0
-462 -467 0
-462 -468 0
-462 -469 0
-462 -470 0
-463 -464 0
-463 -465 0
-463 -466 0
-463 -467 0
-463 -468 0
-463 -469 0
-463 -470 0
-464 -465 0
-464 -466 0
-464 -467 0
-464 -468 0
-464 -469 0
-464 -470 0
-465 -466 0
-465 -467 0
-465 -468 0
-465 -469 0
-465 -470 0
-466 -467 0
-466 -468 0
-466 -469 0
-466 -470 0
-467 -468 0
-467 -469 0
-467 -470 0
-468 -469 0
-468 -470 0
-469 -470 0
471 472 473 474 475 476 477 478 479 480 0
-471 -472 0
-471 -473 0
-471 -474 0
-471 -475 0
-471 -476 0
-471 -477 0
-471 -478 0
-471 -479 0
-471 -480 0
-472 -473 0
-472 -474 0
-472 -475 0
-472 -476 0
-472 -477 0
-472 -478 0
-472 -479 0
-472 -480 0
-473 -474 0
-473 -475 0
-473 -476 0
-473 -477 0
-473 -478 0
-473 -479 0
-473 -480 0
-474 -475 0
-474 -476 0
-474 -477 0
-474 -478 0
-474 -479 0
-474 -480 0
-475 -476 0
-475 -477 0
-475 -478 0
-475 -479 0
-475 -480 0
-476 -477 0
-476 -478 0
-476 -479 0
-476 -480 0
-477 -478 0
-477 -479 0
-477 -480 0
-478 -479 0
-478 -480 0
-479 -480 0
481 482 483 484 485 486 487 488 489 490 0
-481 -482 0
-481 -483 0
-481 -484 0
-481 -485 0
-481 -486 0
-481 -487 0
-481 -488 0
-481 -489 0
-481 -490 0
-482 -483 0
-482 -484 0
-482 -485 0
-482 -486 0
-482 -487 0
-482 -488 0
-482 -489 0
-482 -490 0
-483 -484 0
-483 -485 0
-483 -486 0
-483 -487 0
-483 -488 0
-483 -489 0
-483 -490 0
-484 -485 0
-484 -486 0
-484 -487 0
-484 -488 0
-484 -489 0
-484 -490 0
-485 -486 0
-485 -487 0
-485 -488 0
-485 -489 0
-485 -490 0
-486 -487 0
-486 -488 0
-486 -489 0
-486 -490 0
-487 -488 0
-487 -489 0
-487 -490 0
-488 -489 0
-488 -490 0
-489 -490 0
491 492 493 494 495 496 497 498 499 500 0
-491 -492 0
-491 -493 0
-491 -494 0
-491 -495 0
-491 -496 0
-491 -497 0
-491 -498 0
-491 -499 0
-491 -500 0
-492 -493 0
-492 -494 0
-492 -495 0
-492 -496 0
-492 -497 0
-492 -498 0
-492 -499 0
-492 -500 0
-493 -494 0
-493 -495 0
-493 -496 0
-493 -497 0
-493 -498 0
-493 -499 0
-493 -500 0
-494 -495 0
-494 -496 0
-494 -497 0
-494 -498 0
-494 -499 0
-494 -500 0
-495 -496 0
-495 -497 0
-495 -498 0
-495 -499 0
-495 -500 0
-496 -497 0
-496 -498 0
-496 -499 0
-496 -500 0
-497 -498 0
-497 -499 0
-497 -500 0
-498 -499 0
-498 -500 0
-499 -500 0
501 502 503 504 505 506 507 508 509 510 0
-501 -502 0
-501 -503 0
-501 -504 0
-501 -505 0
-501 -506 0
-501 -507 0
-501 -508 0
-501 -509 0
-501 -510 0
-502 -503 0
-502 -504 0
-502 -505 0
-502 -506 0
-502 -507 0
-502 -508 0
-502 -509 0
-502 -510 0
-503 -504 0
-503 -505 0
-503 -506 0
-503 -507 0
-503 -508 0
-503 -509 0
-503 -510 0
-504 -505 0
-504 -506 0
-504 -507 0
-504 -508 0
-504 -509 0
-504 -510 0
-505 -506 0
-505 -507 0
-505 -508 0
-505 -509 0
-505 -510 0
-506 -507 0
-506 -508 0
-506 -509 0
-506 -510 0
-507 -508 0
-507 -509 0
-507 -510 0
-508 -509 0
-508 -510 0
-509 -510 0
511 512 513 514 515 516 517 518 519 520 0
-511 -512 0
-511 -513 0
-511 -514 0
-511 -515 0
-511 -516 0
-511 -517 0
-511 -518 0
-511 -519 0
-511 -520 0
-512 -513 0
-512 -514 0
-512 -515 0
-512 -516 0
-512 -517 0
-512 -518 0
-512 -519 0
-512 -520 0
-513 -514 0
-513 -515 0
-513 -516 0
-513 -517 0
-513 -518 0
-513 -519 0
-513 -520 0
-514 -515 0
-514 -516 0
-514 -517 0
-514 -518 0
-514 -519 0
-514 -520 0
-515 -516 0
-515 -517 0
-515 -518 0
-515 -519 0
-515 -520 0
-516 -517 0
-516 -518 0
-516 -519 0
-516 -520 0
-517 -518 0
-517 -519 0
-517 -520 0
-518 -519 0
-518 -520 0
-519 -520 0
521 522 523 524 525 526 527 528 529 530 0
-521 -522 0
-521 -523 0
-521 -524 0
-521 -525 0
-521 -526 0
-521 -527 0
-521 -528 0
-521 -529 0
-521 -530 0
-522 -523 0
-522 -524 0
-522 -525 0
-522 -526 0
-522 -527 0
-522 -528 0
-522 -529 0
-522 -530 0
-523 -524 0
-523 -525 0
-523 -526 0
-523 -527 0
-523 -528 0
-523 -529 0
-523 -530 0
-524 -525 0
-524 -526 0
-524 -527 0
-524 -528 0
-524 -529 0
-524 -530 0
-525 -526 0
-525 -527 0
-525 -528 0
-525 -529 0
-525 -530 0
-526 -527 0
-526 -528 0
-526 -529 0
-526 -530 0
-527 -528 0
-527 -529 0
-527 -530 0
-528 -529 0
-528 -530 0
-529 -530 0
531 532 533 534 535 536 537 538 539 540 0
-531 -532 0
-531 -533 0
-531 -534 0
-531 -535 0
-531 -536 0
-531 -537 0
-531 -538 0
-531 -539 0
-531 -540 0
-532 -533 0
-532 -534 0
-532 -535 0
-532 -536 0
-532 -537 0
-532 -538 0
-532 -539 0
-532 -540 0
-533 -534 0
-533 -535 0
-533 -536 0
-533 -537 0
-533 -538 0
-533 -539 0
-533 -540 0
-534 -535 0
-534 -536 0
-534 -537 0
-534 -538 0
-534 -539 0
-534 -540 0
-535 -536 0
-535 -537 0
-535 -538 0
-535 -539 0
-535 -540 0
-536 -537 0
-536 -538 0
-536 -539 0
-536 -540 0
-537 -538 0
-537 -539 0
-537 -540 0
-538 -539 0
-538 -540 0
-539 -540 0
541 542 543 544 545 546 547 548 549 550 0
-541 -542 0
-541 -543 0
-541 -544 0
-541 -545 0
-541 -546 0
-541 -547 0
-541 -548 0
-541 -549 0
-541 -550 0
-542 -543 0
-542 -544 0
-542 -545 0
-542 -546 0
-542 -547 0
-542 -548 0
-542 -549 0
-542 -550 0
-543 -544 0
-543 -545 0
-543 -546 0
-543 -547 0
-543 -548 0
-543 -549 0
-543 -550 0
-544 -545 0
-544 -546 0
-544 -547 0
-544 -548 0
-544 -549 0
-544 -550 0
-545 -546 0
-545 -547 0
-545 -548 0
-545 -549 0
-545 -550 0
-546 -547 0
-546 -548 0
-546 -549 0
-546 -550 0
-547 -548 0
-547 -549 0
-547 -550 0
-548 -549 0
-548 -550 0
-549 -550 0
551 552 553 554 555 556 557 558 559 560 0
-551 -552 0
-551 -553 0
-551 -554 0
-551 -555 0
-551 -556 0
-551 -557 0
-551 -558 0
-551 -559 0
-551 -560 0
-552 -553 0
-552 -554 0
-552 -555 0
-552 -556 0
-552 -557 0
-552 -558 0
-552 -559 0
-552 -560 0
-553 -554 0
-553 -555 0
-553 -556 0
-553 -557 0
-553 -558 0
-553 -559 0
-553 -560 0
-554 -555 0
-554 -556 0
-554 -557 0
-554 -558 0
-554 -559 0
-554 -560 0
-555 -556 0
-555 -557 0
-555 -558 0
-555 -559 0
-555 -560 0
-556 -557 0
-556 -558 0
-556 -559 0
-556 -560 0
-557 -558 0
-557 -559 0
-557 -560 0
-558 -559 0
-558 -560 0
-559 -560 0
561 562 563 564 565 566 567 568 569 570 0
-561 -562 0
-561 -563 0
-561 -564 0
-561 -565 0
-561 -566 0
-561 -567 0
-561 -568 0
-561 -569 0
-561 -570 0
-562 -563 0
-562 -564 0
-562 -565 0
-562 -566 0
-562 -567 0
-562 -568 0
-562 -569 0
-562 -570 0
-563 -564 0
-563 -565 0
-563 -566 0
-563 -567 0
-563 -568 0
-563 -569 0
-563 -570 0
-564 -565 0
-564 -566 0
-564 -567 0
-564 -568 0
-564 -569 0
-564 -570 0
-565 -566 0
-565 -567 0
-565 -568 0
-565 -569 0
-565 -570 0
-566 -567 0
-566 -568 0
-566 -569 0
-566 -570 0
-567 -568 0
-567 -569 0
-567 -570 0
-568 -569 0
-568 -570 0
-569 -570 0
571 572 573 574 575 576 577 578 579 580 0
-571 -572 0
-571 -573 0
-571 -574 0
-571 -575 0
-571 -576 0
-571 -577 0
-571 -578 0
-571 -579 0
-571 -580 0
-572 -573 0
-572 -574 0
-572 -575 0
-572 -576 0
-572 -577 0
-572 -578 0
-572 -579 0
-572 -580 0
-573 -574 0
-573 -575 0
-573 -576 0
-573 -577 0
-573 -578 0
-573 -579 0
-573 -580 0
-574 -575 0
-574 -576 0
-574 -577 0
-574 -578 0
-574 -579 0
-574 -580 0
-575 -576 0
-575 -577 0
-575 -578 0
-575 -579 0
-575 -580 0
-576 -577 0
-576 -578 0
-576 -579 0
-576 -580 0
-577 -578 0
-577 -579 0
-577 -580 0
-578 -579 0
-578 -580 0
-579 -580 0
581 582 583 584 585 586 587 588 589 590 0
-581 -582 0
-581 -583 0
-581 -584 0
-581 -585 0
-581 -586 0
-581 -587 0
-581 -588 0
-581 -589 0
-581 -590 0
-582 -583 0
-582 -584 0
-582 -585 0
-582 -586 0
-582 -587 0
-582 -588 0
-582 -589 0
-582 -590 0
-583 -584 0
-583 -585 0
-583 -586 0
-583 -587 0
-583 -588 0
-583 -589 0
-583 -590 0
-584 -585 0
-584 -586 0
-584 -587 0
-584 -588 0
-584 -589 0
-584 -590 0
-585 -586 0
-585 -587 0
-585 -588 0
-585 -589 0
-585 -590 0
-586 -587 0
-586 -588 0
-586 -589 0
-586 -590 0
-587 -588 0
-587 -589 0
-587 -590 0
-588 -589 0
-588 -590 0
-589 -590 0
591 592 593 594 595 596 597 598 599 600 0
-591 -592 0
-591 -593 0
-591 -594 0
-591 -595 0
-591 -596 0
-591 -597 0
-591 -598 0
-591 -599 0
-591 -600 0
-592 -593 0
-592 -594 0
-592 -595 0
-592 -596 0
-592 -597 0
-592 -598 0
-592 -599 0
-592 -600 0
-593 -594 0
-593 -595 0
-593 -596 0
-593 -597 0
-593 -598 0
-593 -599 0
-593 -600 0
-594 -595 0
-594 -596 0
-594 -597 0
-594 -598 0
-594 -599 0
-594 -600 0
-595 -596 0
-595 -597 0
-595 -598 0
-595 -599 0
-595 -600 0
-596 -597 0
-596 -598 0
-596 -599 0
-596 -600 0
-597 -598 0
-597 -599 0
-597 -600 0
-598 -599 0
-598 -600 0
-599 -600 0
601 602 603 604 605 606 607 608 609 610 0
-601 -602 0
-601 -603 0
-601 -604 0
-601 -605 0
-601 -606 0
-601 -607 0
-601 -608 0
-601 -609 0
-601 -610 0
-602 -603 0
-602 -604 0
-602 -605 0
-602 -606 0
-602 -607 0
-602 -608 0
-602 -609 0
-602 -610 0
-603 -604 0
-603 -605 0
-603 -606 0
-603 -607 0
-603 -608 0
-603 -609 0
-603 -610 0
-604 -605 0
-604 -606 0
-604 -607 0
-604 -608 0
-604 -609 0
-604 -610 0
-605 -606 0
-605 -607 0
-605 -608 0
-605 -609 0
-605 -610 0
-606 -607 0
-606 -608 0
-606 -609 0
-606 -610 0
-607 -608 0
-607 -609 0
-607 -610 0
-608 -609 0
-608 -610 0
-609 -610 0
611 612 613 614 615 616 617 618 619 620 0
-611 -612 0
-611 -613 0
-611 -614 0
-611 -615 0
-611 -616 0
-611 -617 0
-611 -618 0
-611 -619 0
-611 -620 0
-612 -613 0
-612 -614 0
-612 -615 0
-612 -616 0
-612 -617 0
-612 -618 0
-612 -619 0
-612 -620 0
-613 -614 0
-613 -615 0
-613 -616 0
-613 -617 0
-613 -618 0
-613 -619 0
-613 -620 0
-614 -615 0
-614 -616 0
-614 -617 0
-614 -618 0
-614 -619 0
-614 -620 0
-615 -616 0
-615 -617 0
-615 -618 0
-615 -619 0
-615 -620 0
-616 -617 0
-616 -618 0
-616 -619 0
-616 -620 0
-617 -618 0
-617 -619 0
-617 -620 0
-618 -619 0
-618 -620 0
-619 -620 0
621 622 623 624 625 626 627 628 629 630 0
-621 -622 0
-621 -623 0
-621 -624 0
-621 -625 0
-621 -626 0
-621 -627 0
-621 -628 0
-621 -629 0
-621 -630 0
-622 -623 0
-622 -624 0
-622 -625 0
-622 -626 0
-622 -627 0
-622 -628 0
-622 -629 0
-622 -630 0
-623 -624 0
-623 -625 0
-623 -626 0
-623 -627 0
-623 -628 0
-623 -629 0
-623 -630 0
-624 -625 0
-624 -626 0
-624 -627 0
-624 -628 0
-624 -629 0
-624 -630 0
-625 -626 0
-625 -627 0
-625 -628 0
-625 -629 0
-625 -630 0
-626 -627 0
-626 -628 0
-626 -629 0
-626 -630 0
-627 -628 0
-627 -629 0
-627 -630 0
-628 -629 0
-628 -630 0
-629 -630 0
631 632 633 634 635 636 637 638 639 640 0
-631 -632 0
-631 -633 0
-631 -634 0
-631 -635 0
-631 -636 0
-631 -637 0
-631 -638 0
-631 -639 0
-631 -640 0
-632 -633 0
-632 -634 0
-632 -635 0
-632 -636 0
-632 -637 0
-632 -638 0
-632 -639 0
-632 -640 0
-633 -634 0
-633 -635 0
-633 -636 0
-633 -637 0
-633 -638 0
-633 -639 0
-633 -640 0
-634 -635 0
-634 -636 0
-634 -637 0
-634 -638 0
-634 -639 0
-634 -640 0
-635 -636 0
-635 -637 0
-635 -638 0
-635 -639 0
-635 -640 0
-636 -637 0
-636 -638 0
-636 -639 0
-636 -640 0
-637 -638 0
-637 -639 0
-637 -640 0
-638 -639 0
-638 -640 0
-639 -640 0
641 642 643 644 645 646 647 648 649 650 0
-641 -642 0
-641 -643 0
-641 -644 0
-641 -645 0
-641 -646 0
-641 -647 0
-641 -648 0
-641 -649 0
-641 -650 0
-642 -643 0
-642 -644 0
-642 -645 0
-642 -646 0
-642 -647 0
-642 -648 0
-642 -649 0
-642 -650 0
-643 -644 0
-643 -645 0
-643 -646 0
-643 -647 0
-643 -648 0
-643 -649 0
-643 -650 0
-644 -645 0
-644 -646 0
-644 -647 0
-644 -648 0
-644 -649 0
-644 -650 0
-645 -646 0
-645 -647 0
-645 -648 0
-645 -649 0
-645 -650 0
-646 -647 0
-646 -648 0
-646 -649 0
-646 -650 0
-647 -648 0
-647 -649 0
-647 -650 0
-648 -649 0
-648 -650 0
-649 -650 0
651 652 653 654 655 656 657 658 659 660 0
-651 -652 0
-651 -653 0
-651 -654 0
-651 -655 0
-651 -656 0
-651 -657 0
-651 -658 0
-651 -659 0
-651 -660 0
-652 -653 0
-652 -654 0
-652 -655 0
-652 -656 0
-652 -657 0
-652 -658 0
-652 -659 0
-652 -660 0
-653 -654 0
-653 -655 0
-653 -656 0
-653 -657 0
-653 -658 0
-653 -659 0
-653 -660 0
-654 -655 0
-654 -656 0
-654 -657 0
-654 -658 0
-654 -659 0
-654 -660 0
-655 -656 0
-655 -657 0
-655 -658 0
-655 -659 0
-655 -660 0
-656 -657 0
-656 -658 0
-656 -659 0
-656 -660 0
-657 -658 0
-657 -659 0
-657 -660 0
-658 -659 0
-658 -660 0
-659 -660 0
661 662 663 664 665 666 667 668 669 670 0
-661 -662 0
-661 -663 0
-661 -664 0
-661 -665 0
-661 -666 0
-661 -667 0
-661 -668 0
-661 -669 0
-661 -670 0
-662 -663 0
-662 -664 0
-662 -665 0
-662 -666 0
-662 -667 0
-662 -668 0
-662 -669 0
-662 -670 0
-663 -664 0
-663 -665 0
-663 -666 0
-663 -667 0
-663 -668 0
-663 -669 0
-663 -670 0
-664 -665 0
-664 -666 0
-664 -667 0
-664 -668 0
-664 -669 0
-664 -670 0
-665 -666 0
-665 -667 0
-665 -668 0
-665 -669 0
-665 -670 0
-666 -667 0
-666 -668 0
-666 -669 0
-666 -670 0
-667 -668 0
-667 -669 0
-667 -670 0
-668 -669 0
-668 -670 0
-669 -670 0
671 672 673 674 675 676 677 678 679 680 0
-671 -672 0
-671 -673 0
-671 -674 0
-671 -675 0
-671 -676 0
-671 -677 0
-671 -678 0
-671 -679 0
-671 -680 0
-672 -673 0
-672 -674 0
-672 -675 0
-672 -676 0
-672 -677 0
-672 -678 0
-672 -679 0
-672 -680 0
-673 -674 0
-673 -675 0
-673 -676 0
-673 -677 0
-673 -678 0
-673 -679 0
-673 -680 0
-674 -675 0
-674 -676 0
-674 -677 0
-674 -678 0
-674 -679 0
-674 -680 0
-675 -676 0
-675 -677 0
-675 -678 0
-675 -679 0
-675 -680 0
-676 -677 0
-676 -678 0
-676 -679 0
-676 -680 0
-677 -678 0
-677 -679 0
-677 -680 0
-678 -679 0
-678 -680 0
-679 -680 0
681 682 683 684 685 686 687 688 689 690 0
-681 -682 0
-681 -683 0
-681 -684 0
-681 -685 0
-681 -686 0
-681 -687 0
-681 -688 0
-681 -689 0
-681 -690 0
-682 -683 0
-682 -684 0
-682 -685 0
-682 -686 0
-682 -687 0
-682 -688 0
-682 -689 0
-682 -690 0
-683 -684 0
-683 -685 0
-683 -686 0
-683 -687 0
-683 -688 0
-683 -689 0
-683 -690 0
-684 -685 0
-684 -686 0
-684 -687 0
-684 -688 0
-684 -689 0
-684 -690 0
-685 -686 0
-685 -687 0
-685 -688 0
-685 -689 0
-685 -690 0
-686 -687 0
-686 -688 0
-686 -689 0
-686 -690 0
-687 -688 0
-687 -689 0
-687 -690 0
-688 -689 0
-688 -690 0
-689 -690 0
691 692 693 694 695 696 697 698 699 700 0
-691 -692 0
-691 -693 0
-691 -694 0
-691 -695 0
-691 -696 0
-691 -697 0
-691 -698 0
-691 -699 0
-691 -700 0
-692 -693 0
-692 -694 0
-692 -695 0
-692 -696 0
-692 -697 0
-692 -698 0
-692 -699 0
-692 -700 0
-693 -694 0
-693 -695 0
-693 -696 0
-693 -697 0
-693 -698 0
-693 -699 0
-693 -700 0
-694 -695 0
-694 -696 0
-694 -697 0
-694 -698 0
-694 -699 0
-694 -700 0
-695 -696 0
-695 -697 0
-695 -698 0
-695 -699 0
-695 -700 0
-696 -697 0
-696 -698 0
-696 -699 0
-696 -700 0
-697 -698 0
-697 -699 0
-697 -700 0
-698 -699 0
-698 -700 0
-699 -700 0
701 702 703 704 705 706 707 708 709 710 0
-701 -702 0
-701 -703 0
-701 -704 0
-701 -705 0
-701 -706 0
-701 -707 0
-701 -708 0
-701 -709 0
-701 -710 0
-702 -703 0
-702 -704 0
-702 -705 0
-702 -706 0
-702 -707 0
-702 -708 0
-702 -709 0
-702 -710 0
-703 -704 0
-703 -705 0
-703 -706 0
-703 -707 0
-703 -708 0
-703 -709 0
-703 -710 0
-704 -705 0
-704 -706 0
-704 -707 0
-704 -708 0
-704 -709 0
-704 -710 0
-705 -706 0
-705 -707 0
-705 -708 0
-705 -709 0
-705 -710 0
-706 -707 0
-706 -708 0
-706 -709 0
-706 -710 0
-707 -708 0
-707 -709 0
-707 -710 0
-708 -709 0
-708 -710 0
-709 -710 0
711 712 713 714 715 716 717 718 719 720 0
-711 -712 0
-711 -713 0
-711 -714 0
-711 -715 0
-711 -716 0
-711 -717 0
-711 -718 0
-711 -719 0
-711 -720 0
-712 -713 0
-712 -714 0
-712 -715 0
-712 -716 0
-712 -717 0
-712 -718 0
-712 -719 0
-712 -720 0
-713 -714 0
-713 -715 0
-713 -716 0
-713 -717 0
-713 -718 0
-713 -719 0
-713 -720 0
-714 -715 0
-714 -716 0
-714 -717 0
-714 -718 0
-714 -719 0
-714 -720 0
-715 -716 0
-715 -717 0
-715 -718 0
-715 -719 0
-715 -720 0
-716 -717 0
-716 -718 0
-716 -719 0
-716 -720 0
-717 -718 0
-717 -719 0
-717 -720 0
-718 -719 0
-718 -720 0
-719 -720 0
721 722 723 724 725 726 727 728 729 730 0
-721 -722 0
-721 -723 0
-721 -724 0
-721 -725 0
-721 -726 0
-721 -727 0
-721 -728 0
-721 -729 0
-721 -730 0
-722 -723 0
-722 -724 0
-722 -725 0
-722 -726 0
-722 -727 0
-722 -728 0
-722 -729 0
-722 -730 0
-723 -724 0
-723 -725 0
-723 -726 0
-723 -727 0
-723 -728 0
-723 -729 0
-723 -730 0
-724 -725 0
-724 -726 0
-724 -727 0
-724 -728 0
-724 -729 0
-724 -730 0
-725 -726 0
-725 -727 0
-725 -728 0
-725 -729 0
-725 -730 0
-726 -727 0
-726 -728 0
-726 -729 0
-726 -730 0
-727 -728 0
-727 -729 0
-727 -730 0
-728 -729 0
-728 -730 0
-729 -730 0
731 732 733 734 735 736 737 738 739 740 0
-731 -732 0
-731 -733 0
-731 -734 0
-731 -735 0
-731 -736 0
-731 -737 0
-731 -738 0
-731 -739 0
-731 -740 0
-732 -733 0
-732 -734 0
-732 -735 0
-732 -736 0
-732 -737 0
-732 -738 0
-732 -739 0
-732 -740 0
-733 -734 0
-733 -735 0
-733 -736 0
-733 -737 0
-733 -738 0
-733 -739 0
-733 -740 0
-734 -735 0
-734 -736 0
-734 -737 0
-734 -738 0
-734 -739 0
-734 -740 0
-735 -736 0
-735 -737 0
-735 -738 0
-735 -739 0
-735 -740 0
-736 -737 0
-736 -738 0
-736 -739 0
-736 -740 0
-737 -738 0
-737 -739 0
-737 -740 0
-738 -739 0
-738 -740 0
-739 -740 0
741 742 743 744 745 746 747 748 749 750 0
-741 -742 0
-741 -743 0
-741 -744 0
-741 -745 0
-741 -746 0
-741 -747 0
-741 -748 0
-741 -749 0
-741 -750 0
-742 -743 0
-742 -744 0
-742 -745 0
-742 -746 0
-742 -747 0
-742 -748 0
-742 -749 0
-742 -750 0
-743 -744 0
-743 -745 0
-743 -746 0
-743 -747 0
-743 -748 0
-743 -749 0
-743 -750 0
-744 -745 0
-744 -746 0
-744 -747 0
-744 -748 0
-744 -749 0
-744 -750 0
-745 -746 0
-745 -747 0
-745 -748 0
-745 -749 0
-745 -750 0
-746 -747 0
-746 -748 0
-746 -749 0
-746 -750 0
-747 -748 0
-747 -749 0
-747 -750 0
-748 -749 0
-748 -750 0
-749 -750 0
751 752 753 754 755 756 757 758 759 760 0
-751 -752 0
-751 -753 0
-751 -754 0
-751 -755 0
-751 -756 0
-751 -757 0
-751 -758 0
-751 -759 0
-751 -760 0
-752 -753 0
-752 -754 0
-752 -755 0
-752 -756 0
-752 -757 0
-752 -758 0
-752 -759 0
-752 -760 0
-753 -754 0
-753 -755 0
-753 -756 0
-753 -757 0
-753 -758 0
-753 -759 0
-753 -760 0
-754 -755 0
-754 -756 0
-754 -757 0
-754 -758 0
-754 -759 0
-754 -760 0
-755 -756 0
-755 -757 0
-755 -758 0
-755 -759 0
-755 -760 0
-756 -757 0
-756 -758 0
-756 -759 0
-756 -760 0
-757 -758 0
-757 -759 0
-757 -760 0
-758 -759 0
-758 -760 0
-759 -760 0
761 762 763 764 765 766 767 768 769 770 0
-761 -762 0
-761 -763 0
-761 -764 0
-761 -765 0
-761 -766 0
-761 -767 0
-761 -768 0
-761 -769 0
-761 -770 0
-762 -763 0
-762 -764 0
-762 -765 0
-762 -766 0
-762 -767 0
-762 -768 0
-762 -769 0
-762 -770 0
-763 -764 0
-763 -765 0
-763 -766 0
-763 -767 0
-763 -768 0
-763 -769 0
-763 -770 0
-764 -765 0
-764 -766 0
-764 -767 0
-764 -768 0
-764 -769 0
-764 -770 0
-765 -766 0
-765 -767 0
-765 -768 0
-765 -769 0
-765 -770 0
-766 -767 0
-766 -768 0
-766 -769 0
-766 -770 0
-767 -768 0
-767 -769 0
-767 -770 0
-768 -769 0
-768 -770 0
-769 -770 0
771 772 773 774 775 776 777 778 779 780 0
-771 -772 0
-771 -773 0
-771 -774 0
-771 -775 0
-771 -776 0
-771 -777 0
-771 -778 0
-771 -779 0
-771 -780 0
-772 -773 0
-772 -774 0
-772 -775 0
-772 -776 0
-772 -777 0
-772 -778 0
-772 -779 0
-772 -780 0
-773 -774 0
-773 -775 0
-773 -776 0
-773 -777 0
-773 -778 0
-773 -779 0
-773 -780 0
-774 -775 0
-774 -776 0
-774 -777 0
-774 -778 0
-774 -779 0
-774 -780 0
-775 -776 0
-775 -777 0
-775 -778 0
-775 -779 0
-775 -780 0
-776 -777 0
-776 -778 0
-776 -779 0
-776 -780 0
-777 -778 0
-777 -779 0
-777 -780 0
-778 -779 0
-778 -780 0
-779 -780 0
781 782 783 784 785 786 787 788 789 790 0
-781 -782 0
-781 -783 0
-781 -784 0
-781 -785 0
-781 -786 0
-781 -787 0
-781 -788 0
-781 -789 0
-781 -790 0
-782 -783 0
-782 -784 0
-782 -785 0
-782 -786 0
-782 -787 0
-782 -788 0
-782 -789 0
-782 -790 0
-783 -784 0
-783 -785 0
-783 -786 0
-783 -787 0
-783 -788 0
-783 -789 0
-783 -790 0
-784 -785 0
-784 -786 0
-784 -787 0
-784 -788 0
-784 -789 0
-784 -790 0
-785 -786 0
-785 -787 0
-785 -788 0
-785 -789 0
-785 -790 0
-786 -787 0
-786 -788 0
-786 -789 0
-786 -790 0
-787 -788 0
-787 -789 0
-787 -790 0
-788 -789 0
-788 -790 0
-789 -790 0
791 792 793 794 795 796 797 798 799 800 0
-791 -792 0
-791 -793 0
-791 -794 0
-791 -795 0
-791 -796 0
-791 -797 0
-791 -798 0
-791 -799 0
-791 -800 0
-792 -793 0
-792 -794 0
-792 -795 0
-792 -796 0
-792 -797 0
-792 -798 0
-792 -799 0
-792 -800 0
-793 -794 0
-793 -795 0
-793 -796 0
-793 -797 0
-793 -798 0
-793 -799 0
-793 -800 0
-794 -795 0
-794 -796 0
-794 -797 0
-794 -798 0
-794 -799 0
-794 -800 0
-795 -796 0
-795 -797 0
-795 -798 0
-795 -799 0
-795 -800 0
-796 -797 0
-796 -798 0
-796 -799 0
-796 -800 0
-797 -798 0
-797 -799 0
-797 -800 0
-798 -799 0
-798 -800 0
-799 -800 0
801 802 803 804 805 806 807 808 809 810 0
-801 -802 0
-801 -803 0
-801 -804 0
-801 -805 0
-801 -806 0
-801 -807 0
-801 -808 0
-801 -809 0
-801 -810 0
-802 -803 0
-802 -804 0
-802 -805 0
-802 -806 0
-802 -807 0
-802 -808 0
-802 -809 0
-802 -810 0
-803 -804 0
-803 -805 0
-803 -806 0
-803 -807 0
-803 -808 0
-803 -809 0
-803 -810 0
-804 -805 0
-804 -806 0
-804 -807 0
-804 -808 0
-804 -809 0
-804 -810 0
-805 -806 0
-805 -807 0
-805 -808 0
-805 -809 0
-805 -810 0
-806 -807 0
-806 -808 0
-806 -809 0
-806 -810 0
-807 -808 0
-807 -809 0
-807 -810 0
-808 -809 0
-808 -810 0
-809 -810 0
811 812 813 814 815 816 817 818 819 820 0
-811 -812 0
-811 -813 0
-811 -814 0
-811 -815 0
-811 -816 0
-811 -817 0
-811 -818 0
-811 -819 0
-811 -820 0
-812 -813 0
-812 -814 0
-812 -815 0
-812 -816 0
-812 -817 0
-812 -818 0
-812 -819 0
-812 -820 0
-813 -814 0
-813 -815 0
-813 -816 0
-813 -817 0
-813 -818 0
-813 -819 0
-813 -820 0
-814 -815 0
-814 -816 0
-814 -817 0
-814 -818 0
-814 -819 0
-814 -820 0
-815 -816 0
-815 -817 0
-815 -818 0
-815 -819 0
-815 -820 0
-816 -817 0
-816 -818 0
-816 -819 0
-816 -820 0
-817 -818 0
-817 -819 0
-817 -820 0
-818 -819 0
-818 -820 0
-819 -820 0
821 822 823 824 825 826 827 828 829 830 0
-821 -822 0
-821 -823 0
-821 -824 0
-821 -825 0
-821 -826 0
-821 -827 0
-821 -828 0
-821 -829 0
-821 -830 0
-822 -823 0
-822 -824 0
-822 -825 0
-822 -826 0
-822 -827 0
-822 -828 0
-822 -829 0
-822 -830 0
-823 -824 0
-823 -825 0
-823 -826 0
-823 -827 0
-823 -828 0
-823 -829 0
-823 -830 0
-824 -825 0
-824 -826 0
-824 -827 0
-824 -828 0
-824 -829 0
-824 -830 0
-825 -826 0
-825 -827 0
-825 -828 0
-825 -829 0
-825 -830 0
-826 -827 0
-826 -828 0
-826 -829 0
-826 -830 0
-827 -828 0
-827 -829 0
-827 -830 0
-828 -829 0
-828 -830 0
-829 -830 0
831 832 833 834 835 836 837 838 839 840 0
-831 -832 0
-831 -833 0
-831 -834 0
-831 -835 0
-831 -836 0
-831 -837 0
-831 -838 0
-831 -839 0
-831 -840 0
-832 -833 0
-832 -834 0
-832 -835 0
-832 -836 0
-832 -837 0
-832 -838 0
-832 -839 0
-832 -840 0
-833 -834 0
-833 -835 0
-833 -836 0
-833 -837 0
-833 -838 0
-833 -839 0
-833 -840 0
-834 -835 0
-834 -836 0
-834 -837 0
-834 -838 0
-834 -839 0
-834 -840 0
-835 -836 0
-835 -837 0
-835 -838 0
-835 -839 0
-835 -840 0
-836 -837 0
-836 -838 0
-836 -839 0
-836 -840 0
-837 -838 0
-837 -839 0
-837 -840 0
-838 -839 0
-838 -840 0
-839 -840 0
841 842 843 844 845 846 847 848 849 850 0
-841 -842 0
-841 -843 0
-841 -844 0
-841 -845 0
-841 -846 0
-841 -847 0
-841 -848 0
-841 -849 0
-841 -850 0
-842 -843 0
-842 -844 0
-842 -845 0
-842 -846 0
-842 -847 0
-842 -848 0
-842 -849 0
-842 -850 0
-843 -844 0
-843 -845 0
-843 -846 0
-843 -847 0
-843 -848 0
-843 -849 0
-843 -850 0
-844 -845 0
-844 -846 0
-844 -847 0
-844 -848 0
-844 -849 0
-844 -850 0
-845 -846 0
-845 -847 0
-845 -848 0
-845 -849 0
-845 -850 0
-846 -847 0
-846 -848 0
-846 -849 0
-846 -850 0
-847 -848 0
-847 -849 0
-847 -850 0
-848 -849 0
-848 -850 0
-849 -850 0
851 852 853 854 855 856 857 858 859 860 0
-851 -852 0
-851 -853 0
-851 -854 0
-851 -855 0
-851 -856 0
-851 -857 0
-851 -858 0
-851 -859 0
-851 -860 0
-852 -853 0
-852 -854 0
-852 -855 0
-852 -856 0
-852 -857 0
-852 -858 0
-852 -859 0
-852 -860 0
-853 -854 0
-853 -855 0
-853 -856 0
-853 -857 0
-853 -858 0
-853 -859 0
-853 -860 0
-854 -855 0
-854 -856 0
-854 -857 0
-854 -858 0
-854 -859 0
-854 -860 0
-855 -856 0
-855 -857 0
-855 -858 0
-855 -859 0
-855 -860 0
-856 -857 0
-856 -858 0
-856 -859 0
-856 -860 0
-857 -858 0
-857 -859 0
-857 -860 0
-858 -859 0
-858 -860 0
-859 -860 0
861 862 863 864 865 866 867 868 869 870 0
-861 -862 0
-861 -863 0
-861 -864 0
-861 -865 0
-861 -866 0
-861 -867 0
-861 -868 0
-861 -869 0
-861 -870 0
-862 -863 0
-862 -864 0
-862 -865 0
-862 -866 0
-862 -867 0
-862 -868 0
-862 -869 0
-862 -870 0
-863 -864 0
-863 -865 0
-863 -866 0
-863 -867 0
-863 -868 0
-863 -869 0
-863 -870 0
-864 -865 0
-864 -866 0
-864 -867 0
-864 -868 0
-864 -869 0
-864 -870 0
-865 -866 0
-865 -867 0
-865 -868 0
-865 -869 0
-865 -870 0
-866 -867 0
-866 -868 0
-866 -869 0
-866 -870 0
-867 -868 0
-867 -869 0
-867 -870 0
-868 -869 0
-868 -870 0
-869 -870 0
871 872 873 874 875 876 877 878 879 880 0
-871 -872 0
-871 -873 0
-871 -874 0
-871 -875 0
-871 -876 0
-871 -877 0
-871 -878 0
-871 -879 0
-871 -880 0
-872 -873 0
-872 -874 0
-872 -875 0
-872 -876 0
-872 -877 0
-872 -878 0
-872 -879 0
-872 -880 0
-873 -874 0
-873 -875 0
-873 -876 0
-873 -877 0
-873 -878 0
-873 -879 0
-873 -880 0
-874 -875 0
-874 -876 0
-874 -877 0
-874 -878 0
-874 -879 0
-874 -880 0
-875 -876 0
-875 -877 0
-875 -878 0
-875 -879 0
-875 -880 0
-876 -877 0
-876 -878 0
-876 -879 0
-876 -880 0
-877 -878 0
-877 -879 0
-877 -880 0
-878 -879 0
-878 -880 0
-879 -880 0
881 882 883 884 885 886 887 888 889 890 0
-881 -882 0
-881 -883 0
-881 -884 0
-881 -885 0
-881 -886 0
-881 -887 0
-881 -888 0
-881 -889 0
-881 -890 0
-882 -883 0
-882 -884 0
-882 -885 0
-882 -886 0
-882 -887 0
-882 -888 0
-882 -889 0
-882 -890 0
-883 -884 0
-883 -885 0
-883 -886 0
-883 -887 0
-883 -888 0
-883 -889 0
-883 -890 0
-884 -885 0
-884 -886 0
-884 -887 0
-884 -888 0
-884 -889 0
-884 -890 0
-885 -886 0
-885 -887 0
-885 -888 0
-885 -889 0
-885 -890 0
-886 -887 0
-886 -888 0
-886 -889 0
-886 -890 0
-887 -888 0
-887 -889 0
-887 -890 0
-888 -889 0
-888 -890 0
-889 -890 0
891 892 893 894 895 896 897 898 899 900 0
-891 -892 0
-891 -893 0
-891 -894 0
-891 -895 0
-891 -896 0
-891 -897 0
-891 -898 0
-891 -899 0
-891 -900 0
-892 -893 0
-892 -894 0
-892 -895 0
-892 -896 0
-892 -897 0
-892 -898 0
-892 -899 0
-892 -900 0
-893 -894 0
-893 -895 0
-893 -896 0
-893 -897 0
-893 -898 0
-893 -899 0
-893 -900 0
-894 -895 0
-894 -896 0
-894 -897 0
-894 -898 0
-894 -899 0
-894 -900 0
-895 -896 0
-895 -897 0
-895 -898 0
-895 -899 0
-895 -900 0
-896 -897 0
-896 -898 0
-896 -899 0
-896 -900 0
-897 -898 0
-897 -899 0
-897 -900 0
-898 -899 0
-898 -900 0
-899 -900 0
901 902 903 904 905 906 907 908 909 910 0
-901 -902 0
-901 -903 0
-901 -904 0
-901 -905 0
-901 -906 0
-901 -907 0
-901 -908 0
-901 -909 0
-901 -910 0
-902 -903 0
-902 -904 0
-902 -905 0
-902 -906 0
-902 -907 0
-902 -908 0
-902 -909 0
-902 -910 0
-903 -904 0
-903 -905 0
-903 -906 0
-903 -907 0
-903 -908 0
-903 -909 0
-903 -910 0
-904 -905 0
-904 -906 0
-904 -907 0
-904 -908 0
-904 -909 0
-904 -910 0
-905 -906 0
-905 -907 0
-905 -908 0
-905 -909 0
-905 -910 0
-906 -907 0
-906 -908 0
-906 -909 0
-906 -910 0
-907 -908 0
-907 -909 0
-907 -910 0
-908 -909 0
-908 -910 0
-909 -910 0
911 912 913 914 915 916 917 918 919 920 0
-911 -912 0
-911 -913 0
-911 -914 0
-911 -915 0
-911 -916 0
-911 -917 0
-911 -918 0
-911 -919 0
-911 -920 0
-912 -913 0
-912 -914 0
-912 -915 0
-912 -916 0
-912 -917 0
-912 -918 0
-912 -919 0
-912 -920 0
-913 -914 0
-913 -915 0
-913 -916 0
-913 -917 0
-913 -918 0
-913 -919 0
-913 -920 0
-914 -915 0
-914 -916 0
-914 -917 0
-914 -918 0
-914 -919 0
-914 -920 0
-915 -916 0
-915 -917 0
-915 -918 0
-915 -919 0
-915 -920 0
-916 -917 0
-916 -918 0
-916 -919 0
-916 -920 0
-917 -918 0
-917 -919 0
-917 -920 0
-918 -919 0
-918 -920 0
-919 -920 0
921 922 923 924 925 926 927 928 929 930 0
-921 -922 0
-921 -923 0
-921 -924 0
-921 -925 0
-921 -926 0
-921 -927 0
-921 -928 0
-921 -929 0
-921 -930 0
-922 -923 0
-922 -924 0
-922 -925 0
-922 -926 0
-922 -927 0
-922 -928 0
-922 -929 0
-922 -930 0
-923 -924 0
-923 -925 0
-923 -926 0
-923 -927 0
-923 -928 0
-923 -929 0
-923 -930 0
-924 -925 0
-924 -926 0
-924 -927 0
-924 -928 0
-924 -929 0
-924 -930 0
-925 -926 0
-925 -927 0
-925 -928 0
-925 -929 0
-925 -930 0
-926 -927 0
-926 -928 0
-926 -929 0
-926 -930 0
-927 -928 0
-927 -929 0
-927 -930 0
-928 -929 0
-928 -930 0
-929 -930 0
931 932 933 934 935 936 937 938 939 940 0
-931 -932 0
-931 -933 0
-931 -934 0
-931 -935 0
-931 -936 0
-931 -937 0
-931 -938 0
-931 -939 0
-931 -940 0
-932 -933 0
-932 -934 0
-932 -935 0
-932 -936 0
-932 -937 0
-932 -938 0
-932 -939 0
-932 -940 0
-933 -934 0
-933 -935 0
-933 -936 0
-933 -937 0
-933 -938 0
-933 -939 0
-933 -940 0
-934 -935 0
-934 -936 0
-934 -937 0
-934 -938 0
-934 -939 0
-934 -940 0
-935 -936 0
-935 -937 0
-935 -938 0
-935 -939 0
-935 -940 0
-936 -937 0
-936 -938 0
-936 -939 0
-936 -940 0
-937 -938 0
-937 -939 0
-937 -940 0
-938 -939 0
-938 -940 0
-939 -940 0
941 942 943 944 945 946 947 948 949 950 0
-941 -942 0
-941 -943 0
-941 -944 0
-941 -945 0
-941 -946 0
-941 -947 0
-941 -948 0
-941 -949 0
-941 -950 0
-942 -943 0
-942 -944 0
-942 -945 0
-942 -946 0
-942 -947 0
-942 -948 0
-942 -949 0
-942 -950 0
-943 -944 0
-943 -945 0
-943 -946 0
-943 -947 0
-943 -948 0
-943 -949 0
-943 -950 0
-944 -945 0
-944 -946 0
-944 -947 0
-944 -948 0
-944 -949 0
-944 -950 0
-945 -946 0
-945 -947 0
-945 -948 0
-945 -949 0
-945 -950 0
-946 -947 0
-946 -948 0
-946 -949 0
-946 -950 0
-947 -948 0
-947 -949 0
-947 -950 0
-948 -949 0
-948 -950 0
-949 -950 0
951 952 953 954 955 956 957 958 959 960 0
-951 -952 0
-951 -953 0
-951 -954 0
-951 -955 0
-951 -956 0
-951 -957 0
-951 -958 0
-951 -959 0
-951 -960 0
-952 -953 0
-952 -954 0
-952 -955 0
-952 -956 0
-952 -957 0
-952 -958 0
-952 -959 0
-952 -960 0
-953 -954 0
-953 -955 0
-953 -956 0
-953 -957 0
-953 -958 0
-953 -959 0
-953 -960 0
-954 -955 0
-954 -956 0
-954 -957 0
-954 -958 0
-954 -959 0
-954 -960 0
-955 -956 0
-955 -957 0
-955 -958 0
-955 -959 0
-955 -960 0
-956 -957 0
-956 -958 0
-956 -959 0
-956 -960 0
-957 -958 0
-957 -959 0
-957 -960 0
-958 -959 0
-958 -960 0
-959 -960 0
961 962 963 964 965 966 967 968 969 970 0
-961 -962 0
-961 -963 0
-961 -964 0
-961 -965 0
-961 -966 0
-961 -967 0
-961 -968 0
-961 -969 0
-961 -970 0
-962 -963 0
-962 -964 0
-962 -965 0
-962 -966 0
-962 -967 0
-962 -968 0
-962 -969 0
-962 -970 0
-963 -964 0
-963 -965 0
-963 -966 0
-963 -967 0
-963 -968 0
-963 -969 0
-963 -970 0
-964 -965 0
-964 -966 0
-964 -967 0
-964 -968 0
-964 -969 0
-964 -970 0
-965 -966 0
-965 -967 0
-965 -968 0
-965 -969 0
-965 -970 0
-966 -967 0
-966 -968 0
-966 -969 0
-966 -970 0
-967 -968 0
-967 -969 0
-967 -970 0
-968 -969 0
-968 -970 0
-969 -970 0
971 972 973 974 975 976 977 978 979 980 0
-971 -972 0
-971 -973 0
-971 -974 0
-971 -975 0
-971 -976 0
-971 -977 0
-971 -978 0
-971 -979 0
-971 -980 0
-972 -973 0
-972 -974 0
-972 -975 0
-972 -976 0
-972 -977 0
-972 -978 0
-972 -979 0
-972 -980 0
-973 -974 0
-973 -975 0
-973 -976 0
-973 -977 0
-973 -978 0
-973 -979 0
-973 -980 0
-974 -975 0
-974 -976 0
-974 -977 0
-974 -978 0
-974 -979 0
-974 -980 0
-975 -976 0
-975 -977 0
-975 -978 0
-975 -979 0
-975 -980 0
-976 -977 0
-976 -978 0
-976 -979 0
-976 -980 0
-977 -978 0
-977 -979 0
-977 -980 0
-978 -979 0
-978 -980 0
-979 -980 0
981 982 983 984 985 986 987 988 989 990 0
-981 -982 0
-981 -983 0
-981 -984 0
-981 -985 0
-981 -986 0
-981 -987 0
-981 -988 0
-981 -989 0
-981 -990 0
-982 -983 0
-982 -984 0
-982 -985 0
-982 -986 0
-982 -987 0
-982 -988 0
-982 -989 0
-982 -990 0
-983 -984 0
-983 -985 0
-983 -986 0
-983 -987 0
-983 -988 0
-983 -989 0
-983 -990 0
-984 -985 0
-984 -986 0
-984 -987 0
-984 -988 0
-984 -989 0
-984 -990 0
-985 -986 0
-985 -987 0
-985 -988 0
-985 -989 0
-985 -990 0
-986 -987 0
-986 -988 0
-986 -989 0
-986 -990 0
-987 -988 0
-987 -989 0
-987 -990 0
-988 -989 0
-988 -990 0
-989 -990 0
991 992 993 994 995 996 997 998 999 1000 0
-991 -992 0
-991 -993 0
-991 -994 0
-991 -995 0
-991 -996 0
-991 -997 0
-991 -998 0
-991 -999 0
-991 -1000 0
-992 -993 0
-992 -994 0
-992 -995 0
-992 -996 0
-992 -997 0
-992 -998 0
-992 -999 0
-992 -1000 0
-993 -994 0
-993 -995 0
-993 -996 0
-993 -997 0
-993 -998 0
-993 -999 0
-993 -1000 0
-994 -995 0
-994 -996 0
-994 -997 0
-994 -998 0
-994 -999 0
-994 -1000 0
-995 -996 0
-995 -997 0
-995 -998 0
-995 -999 0
-995 -1000 0
-996 -997 0
-996 -998 0
-996 -999 0
-996 -1000 0
-997 -998 0
-997 -999 0
-997 -1000 0
-998 -999 0
-998 -1000 0
-999 -1000 0
1001 1002 1003 1004 1005 1006 1007 1008 1009 1010 0
-1001 -1002 0
-1001 -1003 0
-1001 -1004 0
-1001 -1005 0
-1001 -1006 0
-1001 -1007 0
-1001 -1008 0
-1001 -1009 0
-1001 -1010 0
-1002 -1003 0
-1002 -1004 0
-1002 -1005 0
-1002 -1006 0
-1002 -1007 0
-1002 -1008 0
-1002 -1009 0
-1002 -1010 0
-1003 -1004 0
-1003 -1005 0
-1003 -1006 0
-1003 -1007 0
-1003 -1008 0
-1003 -1009 0
-1003 -1010 0
-1004 -1005 0
-1004 -1006 0
-1004 -1007 0
-1004 -1008 0
-1004 -1009 0
-1004 -1010 0
-1005 -1006 0
-1005 -1007 0
-1005 -1008 0
-1005 -1009 0
-1005 -1010 0
-1006 -1007 0
-1006 -1008 0
-1006 -1009 0
-1006 -1010 0
-1007 -1008 0
-1007 -1009 0
-1007 -1010 0
-1008 -1009 0
-1008 -1010 0
-1009 -1010 0
1011 1012 1013 1014 1015 1016 1017 1018 1019 1020 0
-1011 -1012 0
-1011 -1013 0
-1011 -1014 0
-1011 -1015 0
-1011 -1016 0
-1011 -1017 0
-1011 -1018 0
-1011 -1019 0
-1011 -1020 0
-1012 -1013 0
-1012 -1014 0
-1012 -1015 0
-1012 -1016 0
-1012 -1017 0
-1012 -1018 0
-1012 -1019 0
-1012 -1020 0
-1013 -1014 0
-1013 -1015 0
-1013 -1016 0
-1013 -1017 0
-1013 -1018 0
-1013 -1019 0
-1013 -1020 0
-1014 -1015 0
-1014 -1016 0
-1014 -1017 0
-1014 -1018 0
-1014 -1019 0
-1014 -1020 0
-1015 -1016 0
-1015 -1017 0
-1015 -1018 0
-1015 -1019 0
-1015 -1020 0
-1016 -1017 0
-1016 -1018 0
-1016 -1019 0
-1016 -1020 0
-1017 -1018 0
-1017 -1019 0
-1017 -1020 0
-1018 -1019 0
-1018 -1020 0
-1019 -1020 0
1021 1022 1023 1024 1025 1026 1027 1028 1029 1030 0
-1021 -1022 0
-1021 -1023 0
-1021 -1024 0
-1021 -1025 0
-1021 -1026 0
-1021 -1027 0
-1021 -1028 0
-1021 -1029 0
-1021 -1030 0
-1022 -1023 0
-1022 -1024 0
-1022 -1025 0
-1022 -1026 0
-1022 -1027 0
-1022 -1028 0
-1022 -1029 0
-1022 -1030 0
-1023 -1024 0
-1023 -1025 0
-1023 -1026 0
-1023 -1027 0
-1023 -1028 0
-1023 -1029 0
-1023 -1030 0
-1024 -1025 0
-1024 -1026 0
-1024 -1027 0
-1024 -1028 0
-1024 -1029 0
-1024 -1030 0
-1025 -1026 0
-1025 -1027 0
-1025 -1028 0
-1025 -1029 0
-1025 -1030 0
-1026 -1027 0
-1026 -1028 0
-1026 -1029 0
-1026 -1030 0
-1027 -1028 0
-1027 -1029 0
-1027 -1030 0
-1028 -1029 0
-1028 -1030 0
-1029 -1030 0
1031 1032 1033 1034 1035 1036 1037 1038 1039 1040 0
-1031 -1032 0
-1031 -1033 0
-1031 -1034 0
-1031 -1035 0
-1031 -1036 0
-1031 -1037 0
-1031 -1038 0
-1031 -1039 0
-1031 -1040 0
-1032 -1033 0
-1032 -1034 0
-1032 -1035 0
-1032 -1036 0
-1032 -1037 0
-1032 -1038 0
-1032 -1039 0
-1032 -1040 0
-1033 -1034 0
-1033 -1035 0
-1033 -1036 0
-1033 -1037 0
-1033 -1038 0
-1033 -1039 0
-1033 -1040 0
-1034 -1035 0
-1034 -1036 0
-1034 -1037 0
-1034 -1038 0
-1034 -1039 0
-1034 -1040 0
-1035 -1036 0
-1035 -1037 0
-1035 -1038 0
-1035 -1039 0
-1035 -1040 0
-1036 -1037 0
-1036 -1038 0
-1036 -1039 0
-1036 -1040 0
-1037 -1038 0
-1037 -1039 0
-1037 -1040 0
-1038 -1039 0
-1038 -1040 0
-1039 -1040 0
1041 1042 1043 1044 1045 1046 1047 1048 1049 1050 0
-1041 -1042 0
-1041 -1043 0
-1041 -1044 0
-1041 -1045 0
-1041 -1046 0
-1041 -1047 0
-1041 -1048 0
-1041 -1049 0
-1041 -1050 0
-1042 -1043 0
-1042 -1044 0
-1042 -1045 0
-1042 -1046 0
-1042 -1047 0
-1042 -1048 0
-1042 -1049 0
-1042 -1050 0
-1043 -1044 0
-1043 -1045 0
-1043 -1046 0
-1043 -1047 0
-1043 -1048 0
-1043 -1049 0
-1043 -1050 0
-1044 -1045 0
-1044 -1046 0
-1044 -1047 0
-1044 -1048 0
-1044 -1049 0
-1044 -1050 0
-1045 -1046 0
-1045 -1047 0
-1045 -1048 0
-1045 -1049 0
-1045 -1050 0
-1046 -1047 0
-1046 -1048 0
-1046 -1049 0
-1046 -1050 0
-1047 -1048 0
-1047 -1049 0
-1047 -1050 0
-1048 -1049 0
-1048 -1050 0
-1049 -1050 0
1051 1052 1053 1054 1055 1056 1057 1058 1059 1060 0
-1051 -1052 0
-1051 -1053 0
-1051 -1054 0
-1051 -1055 0
-1051 -1056 0
-1051 -1057 0
-1051 -1058 0
-1051 -1059 0
-1051 -1060 0
-1052 -1053 0
-1052 -1054 0
-1052 -1055 0
-1052 -1056 0
-1052 -1057 0
-1052 -1058 0
-1052 -1059 0
-1052 -1060 0
-1053 -1054 0
-1053 -1055 0
-1053 -1056 0
-1053 -1057 0
-1053 -1058 0
-1053 -1059 0
-1053 -1060 0
-1054 -1055 0
-1054 -1056 0
-1054 -1057 0
-1054 -1058 0
-1054 -1059 0
-1054 -1060 0
-1055 -1056 0
-1055 -1057 0
-1055 -1058 0
-1055 -1059 0
-1055 -1060 0
-1056 -1057 0
-1056 -1058 0
-1056 -1059 0
-1056 -1060 0
-1057 -1058 0
-1057 -1059 0
-1057 -1060 0
-1058 -1059 0
-1058 -1060 0
-1059 -1060 0
1061 1062 1063 1064 1065 1066 1067 1068 1069 1070 0
-1061 -1062 0
-1061 -1063 0
-1061 -1064 0
-1061 -1065 0
-1061 -1066 0
-1061 -1067 0
-1061 -1068 0
-1061 -1069 0
-1061 -1070 0
-1062 -1063 0
-1062 -1064 0
-1062 -1065 0
-1062 -1066 0
-1062 -1067 0
-1062 -1068 0
-1062 -1069 0
-1062 -1070 0
-1063 -1064 0
-1063 -1065 0
-1063 -1066 0
-1063 -1067 0
-1063 -1068 0
-1063 -1069 0
-1063 -1070 0
-1064 -1065 0
-1064 -1066 0
-1064 -1067 0
-1064 -1068 0
-1064 -1069 0
-1064 -1070 0
-1065 -1066 0
-1065 -1067 0
-1065 -1068 0
-1065 -1069 0
-1065 -1070 0
-1066 -1067 0
-1066 -1068 0
-1066 -1069 0
-1066 -1070 0
-1067 -1068 0
-1067 -1069 0
-1067 -1070 0
-1068 -1069 0
-1068 -1070 0
-1069 -1070 0
1071 1072 1073 1074 1075 1076 1077 1078 1079 1080 0
-1071 -1072 0
-1071 -1073 0
-1071 -1074 0
-1071 -1075 0
-1071 -1076 0
-1071 -1077 0
-1071 -1078 0
-1071 -1079 0
-1071 -1080 0
-1072 -1073 0
-1072 -1074 0
-1072 -1075 0
-1072 -1076 0
-1072 -1077 0
-1072 -1078 0
-1072 -1079 0
-1072 -1080 0
-1073 -1074 0
-1073 -1075 0
-1073 -1076 0
-1073 -1077 0
-1073 -1078 0
-1073 -1079 0
-1073 -1080 0
-1074 -1075 0
-1074 -1076 0
-1074 -1077 0
-1074 -1078 0
-1074 -1079 0
-1074 -1080 0
-1075 -1076 0
-1075 -1077 0
-1075 -1078 0
-1075 -1079 0
-1075 -1080 0
-1076 -1077 0
-1076 -1078 0
-1076 -1079 0
-1076 -1080 0
-1077 -1078 0
-1077 -1079 0
-1077 -1080 0
-1078 -1079 0
-1078 -1080 0
-1079 -1080 0
1081 1082 1083 1084 1085 1086 1087 1088 1089 1090 0
-1081 -1082 0
-1081 -1083 0
-1081 -1084 0
-1081 -1085 0
-1081 -1086 0
-1081 -1087 0
-1081 -1088 0
-1081 -1089 0
-1081 -1090 0
-1082 -1083 0
-1082 -1084 0
-1082 -1085 0
-1082 -1086 0
-1082 -1087 0
-1082 -1088 0
-1082 -1089 0
-1082 -1090 0
-1083 -1084 0
-1083 -1085 0
-1083 -1086 0
-1083 -1087 0
-1083 -1088 0
-1083 -1089 0
-1083 -1090 0
-1084 -1085 0
-1084 -1086 0
-1084 -1087 0
-1084 -1088 0
-1084 -1089 0
-1084 -1090 0
-1085 -1086 0
-1085 -1087 0
-1085 -1088 0
-1085 -1089 0
-1085 -1090 0
-1086 -1087 0
-1086 -1088 0
-1086 -1089 0
-1086 -1090 0
-1087 -1088 0
-1087 -1089 0
-1087 -1090 0
-1088 -1089 0
-1088 -1090 0
-1089 -1090 0
1091 1092 1093 1094 1095 1096 1097 1098 1099 1100 0
-1091 -1092 0
-1091 -1093 0
-1091 -1094 0
-1091 -1095 0
-1091 -1096 0
-1091 -1097 0
-1091 -1098 0
-1091 -1099 0
-1091 -1100 0
-1092 -1093 0
-1092 -1094 0
-1092 -1095 0
-1092 -1096 0
-1092 -1097 0
-1092 -1098 0
-1092 -1099 0
-1092 -1100 0
-1093 -1094 0
-1093 -1095 0
-1093 -1096 0
-1093 -1097 0
-1093 -1098 0
-1093 -1099 0
-1093 -1100 0
-1094 -1095 0
-1094 -1096 0
-1094 -1097 0
-1094 -1098 0
-1094 -1099 0
-1094 -1100 0
-1095 -1096 0
-1095 -1097 0
-1095 -1098 0
-1095 -1099 0
-1095 -1100 0
-1096 -1097 0
-1096 -1098 0
-1096 -1099 0
-1096 -1100 0
-1097 -1098 0
-1097 -1099 0
-1097 -1100 0
-1098 -1099 0
-1098 -1100 0
-1099 -1100 0
1101 1102 1103 1104 1105 1106 1107 1108 1109 1110 0
-1101 -1102 0
-1101 -1103 0
-1101 -1104 0
-1101 -1105 0
-1101 -1106 0
-1101 -1107 0
-1101 -1108 0
-1101 -1109 0
-1101 -1110 0
-1102 -1103 0
-1102 -1104 0
-1102 -1105 0
-1102 -1106 0
-1102 -1107 0
-1102 -1108 0
-1102 -1109 0
-1102 -1110 0
-1103 -1104 0
-1103 -1105 0
-1103 -1106 0
-1103 -1107 0
-1103 -1108 0
-1103 -1109 0
-1103 -1110 0
-1104 -1105 0
-1104 -1106 0
-1104 -1107 0
-1104 -1108 0
-1104 -1109 0
-1104 -1110 0
-1105 -1106 0
-1105 -1107 0
-1105 -1108 0
-1105 -1109 0
-1105 -1110 0
-1106 -1107 0
-1106 -1108 0
-1106 -1109 0
-1106 -1110 0
-1107 -1108 0
-1107 -1109 0
-1107 -1110 0
-1108 -1109 0
-1108 -1110 0
-1109 -1110 0
1111 1112 1113 1114 1115 1116 1117 1118 1119 1120 0
-1111 -1112 0
-1111 -1113 0
-1111 -1114 0
-1111 -1115 0
-1111 -1116 0
-1111 -1117 0
-1111 -1118 0
-1111 -1119 0
-1111 -1120 0
-1112 -1113 0
-1112 -1114 0
-1112 -1115 0
-1112 -1116 0
-1112 -1117 0
-1112 -1118 0
-1112 -1119 0
-1112 -1120 0
-1113 -1114 0
-1113 -1115 0
-1113 -1116 0
-1113 -1117 0
-1113 -1118 0
-1113 -1119 0
-1113 -1120 0
-1114 -1115 0
-1114 -1116 0
-1114 -1117 0
-1114 -1118 0
-1114 -1119 0
-1114 -1120 0
-1115 -1116 0
-1115 -1117 0
-1115 -1118 0
-1115 -1119 0
-1115 -1120 0
-1116 -1117 0
-1116 -1118 0
-1116 -1119 0
-1116 -1120 0
-1117 -1118 0
-1117 -1119 0
-1117 -1120 0
-1118 -1119 0
-1118 -1120 0
-1119 -1120 0
1121 1122 1123 1124 1125 1126 1127 1128 1129 1130 0
-1121 -1122 0
-1121 -1123 0
-1121 -1124 0
-1121 -1125 0
-1121 -1126 0
-1121 -1127 0
-1121 -1128 0
-1121 -1129 0
-1121 -1130 0
-1122 -1123 0
-1122 -1124 0
-1122 -1125 0
-1122 -1126 0
-1122 -1127 0
-1122 -1128 0
-1122 -1129 0
-1122 -1130 0
-1123 -1124 0
-1123 -1125 0
-1123 -1126 0
-1123 -1127 0
-1123 -1128 0
-1123 -1129 0
-1123 -1130 0
-1124 -1125 0
-1124 -1126 0
-1124 -1127 0
-1124 -1128 0
-1124 -1129 0
-1124 -1130 0
-1125 -1126 0
-1125 -1127 0
-1125 -1128 0
-1125 -1129 0
-1125 -1130 0
-1126 -1127 0
-1126 -1128 0
-1126 -1129 0
-1126 -1130 0
-1127 -1128 0
-1127 -1129 0
-1127 -1130 0
-1128 -1129 0
-1128 -1130 0
-1129 -1130 0
1131 1132 1133 1134 1135 1136 1137 1138 1139 1140 0
-1131 -1132 0
-1131 -1133 0
-1131 -1134 0
-1131 -1135 0
-1131 -1136 0
-1131 -1137 0
-1131 -1138 0
-1131 -1139 0
-1131 -1140 0
-1132 -1133 0
-1132 -1134 0
-1132 -1135 0
-1132 -1136 0
-1132 -1137 0
-1132 -1138 0
-1132 -1139 0
-1132 -1140 0
-1133 -1134 0
-1133 -1135 0
-1133 -1136 0
-1133 -1137 0
-1133 -1138 0
-1133 -1139 0
-1133 -1140 0
-1134 -1135 0
-1134 -1136 0
-1134 -1137 0
-1134 -1138 0
-1134 -1139 0
-1134 -1140 0
-1135 -1136 0
-1135 -1137 0
-1135 -1138 0
-1135 -1139 0
-1135 -1140 0
-1136 -1137 0
-1136 -1138 0
-1136 -1139 0
-1136 -1140 0
-1137 -1138 0
-1137 -1139 0
-1137 -1140 0
-1138 -1139 0
-1138 -1140 0
-1139 -1140 0
1141 1142 1143 1144 1145 1146 1147 1148 1149 1150 0
-1141 -1142 0
-1141 -1143 0
-1141 -1144 0
-1141 -1145 0
-1141 -1146 0
-1141 -1147 0
-1141 -1148 0
-1141 -1149 0
-1141 -1150 0
-1142 -1143 0
-1142 -1144 0
-1142 -1145 0
-1142 -1146 0
-1142 -1147 0
-1142 -1148 0
-1142 -1149 0
-1142 -1150 0
-1143 -1144 0
-1143 -1145 0
-1143 -1146 0
-1143 -1147 0
-1143 -1148 0
-1143 -1149 0
-1143 -1150 0
-1144 -1145 0
-1144 -1146 0
-1144 -1147 0
-1144 -1148 0
-1144 -1149 0
-1144 -1150 0
-1145 -1146 0
-1145 -1147 0
-1145 -1148 0
-1145 -1149 0
-1145 -1150 0
-1146 -1147 0
-1146 -1148 0
-1146 -1149 0
-1146 -1150 0
-1147 -1148 0
-1147 -1149 0
-1147 -1150 0
-1148 -1149 0
-1148 -1150 0
-1149 -1150 0
1151 1152 1153 1154 1155 1156 1157 1158 1159 1160 0
-1151 -1152 0
-1151 -1153 0
-1151 -1154 0
-1151 -1155 0
-1151 -1156 0
-1151 -1157 0
-1151 -1158 0
-1151 -1159 0
-1151 -1160 0
-1152 -1153 0
-1152 -1154 0
-1152 -1155 0
-1152 -1156 0
-1152 -1157 0
-1152 -1158 0
-1152 -1159 0
-1152 -1160 0
-1153 -1154 0
-1153 -1155 0
-1153 -1156 0
-1153 -1157 0
-1153 -1158 0
-1153 -1159 0
-1153 -1160 0
-1154 -1155 0
-1154 -1156 0
-1154 -1157 0
-1154 -1158 0
-1154 -1159 0
-1154 -1160 0
-1155 -1156 0
-1155 -1157 0
-1155 -1158 0
-1155 -1159 0
-1155 -1160 0
-1156 -1157 0
-1156 -1158 0
-1156 -1159 0
-1156 -1160 0
-1157 -1158 0
-1157 -1159 0
-1157 -1160 0
-1158 -1159 0
-1158 -1160 0
-1159 -1160 0
1161 1162 1163 1164 1165 1166 1167 1168 1169 1170 0
-1161 -1162 0
-1161 -1163 0
-1161 -1164 0
-1161 -1165 0
-1161 -1166 0
-1161 -1167 0
-1161 -1168 0
-1161 -1169 0
-1161 -1170 0
-1162 -1163 0
-1162 -1164 0
-1162 -1165 0
-1162 -1166 0
-1162 -1167 0
-1162 -1168 0
-1162 -1169 0
-1162 -1170 0
-1163 -1164 0
-1163 -1165 0
-1163 -1166 0
-1163 -1167 0
-1163 -1168 0
-1163 -1169 0
-1163 -1170 0
-1164 -1165 0
-1164 -1166 0
-1164 -1167 0
-1164 -1168 0
-1164 -1169 0
-1164 -1170 0
-1165 -1166 0
-1165 -1167 0
-1165 -1168 0
-1165 -1169 0
-1165 -1170 0
-1166 -1167 0
-1166 -1168 0
-1166 -1169 0
-1166 -1170 0
-1167 -1168 0
-1167 -1169 0
-1167 -1170 0
-1168 -1169 0
-1168 -1170 0
-1169 -1170 0
1171 1172 1173 1174 1175 1176 1177 1178 1179 1180 0
-1171 -1172 0
-1171 -1173 0
-1171 -1174 0
-1171 -1175 0
-1171 -1176 0
-1171 -1177 0
-1171 -1178 0
-1171 -1179 0
-1171 -1180 0
-1172 -1173 0
-1172 -1174 0
-1172 -1175 0
-1172 -1176 0
-1172 -1177 0
-1172 -1178 0
-1172 -1179 0
-1172 -1180 0
-1173 -1174 0
-1173 -1175 0
-1173 -1176 0
-1173 -1177 0
-1173 -1178 0
-1173 -1179 0
-1173 -1180 0
-1174 -1175 0
-1174 -1176 0
-1174 -1177 0
-1174 -1178 0
-1174 -1179 0
-1174 -1180 0
-1175 -1176 0
-1175 -1177 0
-1175 -1178 0
-1175 -1179 0
-1175 -1180 0
-1176 -1177 0
-1176 -1178 0
-1176 -1179 0
-1176 -1180 0
-1177 -1178 0
-1177 -1179 0
-1177 -1180 0
-1178 -1179 0
-1178 -1180 0
-1179 -1180 0
1181 1182 1183 1184 1185 1186 1187 1188 1189 1190 0
-1181 -1182 0
-1181 -1183 0
-1181 -1184 0
-1181 -1185 0
-1181 -1186 0
-1181 -1187 0
-1181 -1188 0
-1181 -1189 0
-1181 -1190 0
-1182 -1183 0
-1182 -1184 0
-1182 -1185 0
-1182 -1186 0
-1182 -1187 0
-1182 -1188 0
-1182 -1189 0
-1182 -1190 0
-1183 -1184 0
-1183 -1185 0
-1183 -1186 0
-1183 -1187 0
-1183 -1188 0
-1183 -1189 0
-1183 -1190 0
-1184 -1185 0
-1184 -1186 0
-1184 -1187 0
-1184 -1188 0
-1184 -1189 0
-1184 -1190 0
-1185 -1186 0
-1185 -1187 0
-1185 -1188 0
-1185 -1189 0
-1185 -1190 0
-1186 -1187 0
-1186 -1188 0
-1186 -1189 0
-1186 -1190 0
-1187 -1188 0
-1187 -1189 0
-1187 -1190 0
-1188 -1189 0
-1188 -1190 0
-1189 -1190 0
1191 1192 1193 1194 1195 1196 1197 1198 1199 1200 0
-1191 -1192 0
-1191 -1193 0
-1191 -1194 0
-1191 -1195 0
-1191 -1196 0
-1191 -1197 0
-1191 -1198 0
-1191 -1199 0
-1191 -1200 0
-1192 -1193 0
-1192 -1194 0
-1192 -1195 0
-1192 -1196 0
-1192 -1197 0
-1192 -1198 0
-1192 -1199 0
-1192 -1200 0
-1193 -1194 0
-1193 -1195 0
-1193 -1196 0
-1193 -1197 0
-1193 -1198 0
-1193 -1199 0
-1193 -1200 0
-1194 -1195 0
-1194 -1196 0
-1194 -1197 0
-1194 -1198 0
-1194 -1199 0
-1194 -1200 0
-1195 -1196 0
-1195 -1197 0
-1195 -1198 0
-1195 -1199 0
-1195 -1200 0
-1196 -1197 0
-1196 -1198 0
-1196 -1199 0
-1196 -1200 0
-1197 -1198 0
-1197 -1199 0
-1197 -1200 0
-1198 -1199 0
-1198 -1200 0
-1199 -1200 0
1201 1202 1203 1204 1205 1206 1207 1208 1209 1210 0
-1201 -1202 0
-1201 -1203 0
-1201 -1204 0
-1201 -1205 0
-1201 -1206 0
-1201 -1207 0
-1201 -1208 0
-1201 -1209 0
-1201 -1210 0
-1202 -1203 0
-1202 -1204 0
-1202 -1205 0
-1202 -1206 0
-1202 -1207 0
-1202 -1208 0
-1202 -1209 0
-1202 -1210 0
-1203 -1204 0
-1203 -1205 0
-1203 -1206 0
-1203 -1207 0
-1203 -1208 0
-1203 -1209 0
-1203 -1210 0
-1204 -1205 0
-1204 -1206 0
-1204 -1207 0
-1204 -1208 0
-1204 -1209 0
-1204 -1210 0
-1205 -1206 0
-1205 -1207 0
-1205 -1208 0
-1205 -1209 0
-1205 -1210 0
-1206 -1207 0
-1206 -1208 0
-1206 -1209 0
-1206 -1210 0
-1207 -1208 0
-1207 -1209 0
-1207 -1210 0
-1208 -1209 0
-1208 -1210 0
-1209 -1210 0
1211 1212 1213 1214 1215 1216 1217 1218 1219 1220 0
-1211 -1212 0
-1211 -1213 0
-1211 -1214 0
-1211 -1215 0
-1211 -1216 0
-1211 -1217 0
-1211 -1218 0
-1211 -1219 0
-1211 -1220 0
-1212 -1213 0
-1212 -1214 0
-1212 -1215 0
-1212 -1216 0
-1212 -1217 0
-1212 -1218 0
-1212 -1219 0
-1212 -1220 0
-1213 -1214 0
-1213 -1215 0
-1213 -1216 0
-1213 -1217 0
-1213 -1218 0
-1213 -1219 0
-1213 -1220 0
-1214 -1215 0
-1214 -1216 0
-1214 -1217 0
-1214 -1218 0
-1214 -1219 0
-1214 -1220 0
-1215 -1216 0
-1215 -1217 0
-1215 -1218 0
-1215 -1219 0
-1215 -1220 0
-1216 -1217 0
-1216 -1218 0
-1216 -1219 0
-1216 -1220 0
-1217 -1218 0
-1217 -1219 0
-1217 -1220 0
-1218 -1219 0
-1218 -1220 0
-1219 -1220 0
1221 1222 1223 1224 1225 1226 1227 1228 1229 1230 0
-1221 -1222 0
-1221 -1223 0
-1221 -1224 0
-1221 -1225 0
-1221 -1226 0
-1221 -1227 0
-1221 -1228 0
-1221 -1229 0
-1221 -1230 0
-1222 -1223 0
-1222 -1224 0
-1222 -1225 0
-1222 -1226 0
-1222 -1227 0
-1222 -1228 0
-1222 -1229 0
-1222 -1230 0
-1223 -1224 0
-1223 -1225 0
-1223 -1226 0
-1223 -1227 0
-1223 -1228 0
-1223 -1229 0
-1223 -1230 0
-1224 -1225 0
-1224 -1226 0
-1224 -1227 0
-1224 -1228 0
-1224 -1229 0
-1224 -1230 0
-1225 -1226 0
-1225 -1227 0
-1225 -1228 0
-1225 -1229 0
-1225 -1230 0
-1226 -1227 0
-1226 -1228 0
-1226 -1229 0
-1226 -1230 0
-1227 -1228 0
-1227 -1229 0
-1227 -1230 0
-1228 -1229 0
-1228 -1230 0
-1229 -1230 0
1231 1232 1233 1234 1235 1236 1237 1238 1239 1240 0
-1231 -1232 0
-1231 -1233 0
-1231 -1234 0
-1231 -1235 0
-1231 -1236 0
-1231 -1237 0
-1231 -1238 0
-1231 -1239 0
-1231 -1240 0
-1232 -1233 0
-1232 -1234 0
-1232 -1235 0
-1232 -1236 0
-1232 -1237 0
-1232 -1238 0
-1232 -1239 0
-1232 -1240 0
-1233 -1234 0
-1233 -1235 0
-1233 -1236 0
-1233 -1237 0
-1233 -1238 0
-1233 -1239 0
-1233 -1240 0
-1234 -1235 0
-1234 -1236 0
-1234 -1237 0
-1234 -1238 0
-1234 -1239 0
-1234 -1240 0
-1235 -1236 0
-1235 -1237 0
-1235 -1238 0
-1235 -1239 0
-1235 -1240 0
-1236 -1237 0
-1236 -1238 0
-1236 -1239 0
-1236 -1240 0
-1237 -1238 0
-1237 -1239 0
-1237 -1240 0
-1238 -1239 0
-1238 -1240 0
-1239 -1240 0
1241 1242 1243 1244 1245 1246 1247 1248 1249 1250 0
-1241 -1242 0
-1241 -1243 0
-1241 -1244 0
-1241 -1245 0
-1241 -1246 0
-1241 -1247 0
-1241 -1248 0
-1241 -1249 0
-1241 -1250 0
-1242 -1243 0
-1242 -1244 0
-1242 -1245 0
-1242 -1246 0
-1242 -1247 0
-1242 -1248 0
-1242 -1249 0
-1242 -1250 0
-1243 -1244 0
-1243 -1245 0
-1243 -1246 0
-1243 -1247 0
-1243 -1248 0
-1243 -1249 0
-1243 -1250 0
-1244 -1245 0
-1244 -1246 0
-1244 -1247 0
-1244 -1248 0
-1244 -1249 0
-1244 -1250 0
-1245 -1246 0
-1245 -1247 0
-1245 -1248 0
-1245 -1249 0
-1245 -1250 0
-1246 -1247 0
-1246 -1248 0
-1246 -1249 0
-1246 -1250 0
-1247 -1248 0
-1247 -1249 0
-1247 -1250 0
-1248 -1249 0
-1248 -1250 0
-1249 -1250 0
1251 1252 1253 1254 1255 1256 1257 1258 1259 1260 0
-1251 -1252 0
-1251 -1253 0
-1251 -1254 0
-1251 -1255 0
-1251 -1256 0
-1251 -1257 0
-1251 -1258 0
-1251 -1259 0
-1251 -1260 0
-1252 -1253 0
-1252 -1254 0
-1252 -1255 0
-1252 -1256 0
-1252 -1257 0
-1252 -1258 0
-1252 -1259 0
-1252 -1260 0
-1253 -1254 0
-1253 -1255 0
-1253 -1256 0
-1253 -1257 0
-1253 -1258 0
-1253 -1259 0
-1253 -1260 0
-1254 -1255 0
-1254 -1256 0
-1254 -1257 0
-1254 -1258 0
-1254 -1259 0
-1254 -1260 0
-1255 -1256 0
-1255 -1257 0
-1255 -1258 0
-1255 -1259 0
-1255 -1260 0
-1256 -1257 0
-1256 -1258 0
-1256 -1259 0
-1256 -1260 0
-1257 -1258 0
-1257 -1259 0
-1257 -1260 0
-1258 -1259 0
-1258 -1260 0
-1259 -1260 0
1261 1262 1263 1264 1265 1266 1267 1268 1269 1270 0
-1261 -1262 0
-1261 -1263 0
-1261 -1264 0
-1261 -1265 0
-1261 -1266 0
-1261 -1267 0
-1261 -1268 0
-1261 -1269 0
-1261 -1270 0
-1262 -1263 0
-1262 -1264 0
-1262 -1265 0
-1262 -1266 0
-1262 -1267 0
-1262 -1268 0
-1262 -1269 0
-1262 -1270 0
-1263 -1264 0
-1263 -1265 0
-1263 -1266 0
-1263 -1267 0
-1263 -1268 0
-1263 -1269 0
-1263 -1270 0
-1264 -1265 0
-1264 -1266 0
-1264 -1267 0
-1264 -1268 0
-1264 -1269 0
-1264 -1270 0
-1265 -1266 0
-1265 -1267 0
-1265 -1268 0
-1265 -1269 0
-1265 -1270 0
-1266 -1267 0
-1266 -1268 0
-1266 -1269 0
-1266 -1270 0
-1267 -1268 0
-1267 -1269 0
-1267 -1270 0
-1268 -1269 0
-1268 -1270 0
-1269 -1270 0
1271 1272 1273 1274 1275 1276 1277 1278 1279 1280 0
-1271 -1272 0
-1271 -1273 0
-1271 -1274 0
-1271 -1275 0
-1271 -1276 0
-1271 -1277 0
-1271 -1278 0
-1271 -1279 0
-1271 -1280 0
-1272 -1273 0
-1272 -1274 0
-1272 -1275 0
-1272 -1276 0
-1272 -1277 0
-1272 -1278 0
-1272 -1279 0
-1272 -1280 0
-1273 -1274 0
-1273 -1275 0
-1273 -1276 0
-1273 -1277 0
-1273 -1278 0
-1273 -1279 0
-1273 -1280 0
-1274 -1275 0
-1274 -1276 0
-1274 -1277 0
-1274 -1278 0
-1274 -1279 0
-1274 -1280 0
-1275 -1276 0
-1275 -1277 0
-1275 -1278 0
-1275 -1279 0
-1275 -1280 0
-1276 -1277 0
-1276 -1278 0
-1276 -1279 0
-1276 -1280 0
-1277 -1278 0
-1277 -1279 0
-1277 -1280 0
-1278 -1279 0
-1278 -1280 0
-1279 -1280 0
1281 1282 1283 1284 1285 1286 1287 1288 1289 1290 0
-1281 -1282 0
-1281 -1283 0
-1281 -1284 0
-1281 -1285 0
-1281 -1286 0
-1281 -1287 0
-1281 -1288 0
-1281 -1289 0
-1281 -1290 0
-1282 -1283 0
-1282 -1284 0
-1282 -1285 0
-1282 -1286 0
-1282 -1287 0
-1282 -1288 0
-1282 -1289 0
-1282 -1290 0
-1283 -1284 0
-1283 -1285 0
-1283 -1286 0
-1283 -1287 0
-1283 -1288 0
-1283 -1289 0
-1283 -1290 0
-1284 -1285 0
-1284 -1286 0
-1284 -1287 0
-1284 -1288 0
-1284 -1289 0
-1284 -1290 0
-1285 -1286 0
-1285 -1287 0
-1285 -1288 0
-1285 -1289 0
-1285 -1290 0
-1286 -1287 0
-1286 -1288 0
-1286 -1289 0
-1286 -1290 0
-1287 -1288 0
-1287 -1289 0
-1287 -1290 0
-1288 -1289 0
-1288 -1290 0
-1289 -1290 0
1291 1292 1293 1294 1295 1296 1297 1298 1299 1300 0
-1291 -1292 0
-1291 -1293 0
-1291 -1294 0
-1291 -1295 0
-1291 -1296 0
-1291 -1297 0
-1291 -1298 0
-1291 -1299 0
-1291 -1300 0
-1292 -1293 0
-1292 -1294 0
-1292 -1295 0
-1292 -1296 0
-1292 -1297 0
-1292 -1298 0
-1292 -1299 0
-1292 -1300 0
-1293 -1294 0
-1293 -1295 0
-1293 -1296 0
-1293 -1297 0
-1293 -1298 0
-1293 -1299 0
-1293 -1300 0
-1294 -1295 0
-1294 -1296 0
-1294 -1297 0
-1294 -1298 0
-1294 -1299 0
-1294 -1300 0
-1295 -1296 0
-1295 -1297 0
-1295 -1298 0
-1295 -1299 0
-1295 -1300 0
-1296 -1297 0
-1296 -1298 0
-1296 -1299 0
-1296 -1300 0
-1297 -1298 0
-1297 -1299 0
-1297 -1300 0
-1298 -1299 0
-1298 -1300 0
-1299 -1300 0
1301 1302 1303 1304 1305 1306 1307 1308 1309 1310 0
-1301 -1302 0
-1301 -1303 0
-1301 -1304 0
-1301 -1305 0
-1301 -1306 0
-1301 -1307 0
-1301 -1308 0
-1301 -1309 0
-1301 -1310 0
-1302 -1303 0
-1302 -1304 0
-1302 -1305 0
-1302 -1306 0
-1302 -1307 0
-1302 -1308 0
-1302 -1309 0
-1302 -1310 0
-1303 -1304 0
-1303 -1305 0
-1303 -1306 0
-1303 -1307 0
-1303 -1308 0
-1303 -1309 0
-1303 -1310 0
-1304 -1305 0
-1304 -1306 0
-1304 -1307 0
-1304 -1308 0
-1304 -1309 0
-1304 -1310 0
-1305 -1306 0
-1305 -1307 0
-1305 -1308 0
-1305 -1309 0
-1305 -1310 0
-1306 -1307 0
-1306 -1308 0
-1306 -1309 0
-1306 -1310 0
-1307 -1308 0
-1307 -1309 0
-1307 -1310 0
-1308 -1309 0
-1308 -1310 0
-1309 -1310 0
1311 1312 1313 1314 1315 1316 1317 1318 1319 1320 0
-1311 -1312 0
-1311 -1313 0
-1311 -1314 0
-1311 -1315 0
-1311 -1316 0
-1311 -1317 0
-1311 -1318 0
-1311 -1319 0
-1311 -1320 0
-1312 -1313 0
-1312 -1314 0
-1312 -1315 0
-1312 -1316 0
-1312 -1317 0
-1312 -1318 0
-1312 -1319 0
-1312 -1320 0
-1313 -1314 0
-1313 -1315 0
-1313 -1316 0
-1313 -1317 0
-1313 -1318 0
-1313 -1319 0
-1313 -1320 0
-1314 -1315 0
-1314 -1316 0
-1314 -1317 0
-1314 -1318 0
-1314 -1319 0
-1314 -1320 0
-1315 -1316 0
-1315 -1317 0
-1315 -1318 0
-1315 -1319 0
-1315 -1320 0
-1316 -1317 0
-1316 -1318 0
-1316 -1319 0
-1316 -1320 0
-1317 -1318 0
-1317 -1319 0
-1317 -1320 0
-1318 -1319 0
-1318 -1320 0
-1319 -1320 0
1321 1322 1323 1324 1325 1326 1327 1328 1329 1330 0
-1321 -1322 0
-1321 -1323 0
-1321 -1324 0
-1321 -1325 0
-1321 -1326 0
-1321 -1327 0
-1321 -1328 0
-1321 -1329 0
-1321 -1330 0
-1322 -1323 0
-1322 -1324 0
-1322 -1325 0
-1322 -1326 0
-1322 -1327 0
-1322 -1328 0
-1322 -1329 0
-1322 -1330 0
-1323 -1324 0
-1323 -1325 0
-1323 -1326 0
-1323 -1327 0
-1323 -1328 0
-1323 -1329 0
-1323 -1330 0
-1324 -1325 0
-1324 -1326 0
-1324 -1327 0
-1324 -1328 0
-1324 -1329 0
-1324 -1330 0
-1325 -1326 0
-1325 -1327 0
-1325 -1328 0
-1325 -1329 0
-1325 -1330 0
-1326 -1327 0
-1326 -1328 0
-1326 -1329 0
-1326 -1330 0
-1327 -1328 0
-1327 -1329 0
-1327 -1330 0
-1328 -1329 0
-1328 -1330 0
-1329 -1330 0
1331 1332 1333 1334 1335 1336 1337 1338 1339 1340 0
-1331 -1332 0
-1331 -1333 0
-1331 -1334 0
-1331 -1335 0
-1331 -1336 0
-1331 -1337 0
-1331 -1338 0
-1331 -1339 0
-1331 -1340 0
-1332 -1333 0
-1332 -1334 0
-1332 -1335 0
-1332 -1336 0
-1332 -1337 0
-1332 -1338 0
-1332 -1339 0
-1332 -1340 0
-1333 -1334 0
-1333 -1335 0
-1333 -1336 0
-1333 -1337 0
-1333 -1338 0
-1333 -1339 0
-1333 -1340 0
-1334 -1335 0
-1334 -1336 0
-1334 -1337 0
-1334 -1338 0
-1334 -1339 0
-1334 -1340 0
-1335 -1336 0
-1335 -1337 0
-1335 -1338 0
-1335 -1339 0
-1335 -1340 0
-1336 -1337 0
-1336 -1338 0
-1336 -1339 0
-1336 -1340 0
-1337 -1338 0
-1337 -1339 0
-1337 -1340 0
-1338 -1339 0
-1338 -1340 0
-1339 -1340 0
1341 1342 1343 1344 1345 1346 1347 1348 1349 1350 0
-1341 -1342 0
-1341 -1343 0
-1341 -1344 0
-1341 -1345 0
-1341 -1346 0
-1341 -1347 0
-1341 -1348 0
-1341 -1349 0
-1341 -1350 0
-1342 -1343 0
-1342 -1344 0
-1342 -1345 0
-1342 -1346 0
-1342 -1347 0
-1342 -1348 0
-1342 -1349 0
-1342 -1350 0
-1343 -1344 0
-1343 -1345 0
-1343 -1346 0
-1343 -1347 0
-1343 -1348 0
-1343 -1349 0
-1343 -1350 0
-1344 -1345 0
-1344 -1346 0
-1344 -1347 0
-1344 -1348 0
-1344 -1349 0
-1344 -1350 0
-1345 -1346 0
-1345 -1347 0
-1345 -1348 0
-1345 -1349 0
-1345 -1350 0
-1346 -1347 0
-1346 -1348 0
-1346 -1349 0
-1346 -1350 0
-1347 -1348 0
-1347 -1349 0
-1347 -1350 0
-1348 -1349 0
-1348 -1350 0
-1349 -1350 0
1351 1352 1353 1354 1355 1356 1357 1358 1359 1360 0
-1351 -1352 0
-1351 -1353 0
-1351 -1354 0
-1351 -1355 0
-1351 -1356 0
-1351 -1357 0
-1351 -1358 0
-1351 -1359 0
-1351 -1360 0
-1352 -1353 0
-1352 -1354 0
-1352 -1355 0
-1352 -1356 0
-1352 -1357 0
-1352 -1358 0
-1352 -1359 0
-1352 -1360 0
-1353 -1354 0
-1353 -1355 0
-1353 -1356 0
-1353 -1357 0
-1353 -1358 0
-1353 -1359 0
-1353 -1360 0
-1354 -1355 0
-1354 -1356 0
-1354 -1357 0
-1354 -1358 0
-1354 -1359 0
-1354 -1360 0
-1355 -1356 0
-1355 -1357 0
-1355 -1358 0
-1355 -1359 0
-1355 -1360 0
-1356 -1357 0
-1356 -1358 0
-1356 -1359 0
-1356 -1360 0
-1357 -1358 0
-1357 -1359 0
-1357 -1360 0
-1358 -1359 0
-1358 -1360 0
-1359 -1360 0
1361 1362 1363 1364 1365 1366 1367 1368 1369 1370 0
-1361 -1362 0
-1361 -1363 0
-1361 -1364 0
-1361 -1365 0
-1361 -1366 0
-1361 -1367 0
-1361 -1368 0
-1361 -1369 0
-1361 -1370 0
-1362 -1363 0
-1362 -1364 0
-1362 -1365 0
-1362 -1366 0
-1362 -1367 0
-1362 -1368 0
-1362 -1369 0
-1362 -1370 0
-1363 -1364 0
-1363 -1365 0
-1363 -1366 0
-1363 -1367 0
-1363 -1368 0
-1363 -1369 0
-1363 -1370 0
-1364 -1365 0
-1364 -1366 0
-1364 -1367 0
-1364 -1368 0
-1364 -1369 0
-1364 -1370 0
-1365 -1366 0
-1365 -1367 0
-1365 -1368 0
-1365 -1369 0
-1365 -1370 0
-1366 -1367 0
-1366 -1368 0
-1366 -1369 0
-1366 -1370 0
-1367 -1368 0
-1367 -1369 0
-1367 -1370 0
-1368 -1369 0
-1368 -1370 0
-1369 -1370 0
1371 1372 1373 1374 1375 1376 1377 1378 1379 1380 0
-1371 -1372 0
-1371 -1373 0
-1371 -1374 0
-1371 -1375 0
-1371 -1376 0
-1371 -1377 0
-1371 -1378 0
-1371 -1379 0
-1371 -1380 0
-1372 -1373 0
-1372 -1374 0
-1372 -1375 0
-1372 -1376 0
-1372 -1377 0
-1372 -1378 0
-1372 -1379 0
-1372 -1380 0
-1373 -1374 0
-1373 -1375 0
-1373 -1376 0
-1373 -1377 0
-1373 -1378 0
-1373 -1379 0
-1373 -1380 0
-1374 -1375 0
-1374 -1376 0
-1374 -1377 0
-1374 -1378 0
-1374 -1379 0
-1374 -1380 0
-1375 -1376 0
-1375 -1377 0
-1375 -1378 0
-1375 -1379 0
-1375 -1380 0
-1376 -1377 0
-1376 -1378 0
-1376 -1379 0
-1376 -1380 0
-1377 -1378 0
-1377 -1379 0
-1377 -1380 0
-1378 -1379 0
-1378 -1380 0
-1379 -1380 0
1381 1382 1383 1384 1385 1386 1387 1388 1389 1390 0
-1381 -1382 0
-1381 -1383 0
-1381 -1384 0
-1381 -1385 0
-1381 -1386 0
-1381 -1387 0
-1381 -1388 0
-1381 -1389 0
-1381 -1390 0
-1382 -1383 0
-1382 -1384 0
-1382 -1385 0
-1382 -1386 0
-1382 -1387 0
-1382 -1388 0
-1382 -1389 0
-1382 -1390 0
-1383 -1384 0
-1383 -1385 0
-1383 -1386 0
-1383 -1387 0
-1383 -1388 0
-1383 -1389 0
-1383 -1390 0
-1384 -1385 0
-1384 -1386 0
-1384 -1387 0
-1384 -1388 0
-1384 -1389 0
-1384 -1390 0
-1385 -1386 0
-1385 -1387 0
-1385 -1388 0
-1385 -1389 0
-1385 -1390 0
-1386 -1387 0
-1386 -1388 0
-1386 -1389 0
-1386 -1390 0
-1387 -1388 0
-1387 -1389 0
-1387 -1390 0
-1388 -1389 0
-1388 -1390 0
-1389 -1390 0
1391 1392 1393 1394 1395 1396 1397 1398 1399 1400 0
-1391 -1392 0
-1391 -1393 0
-1391 -1394 0
-1391 -1395 0
-1391 -1396 0
-1391 -1397 0
-1391 -1398 0
-1391 -1399 0
-1391 -1400 0
-1392 -1393 0
-1392 -1394 0
-1392 -1395 0
-1392 -1396 0
-1392 -1397 0
-1392 -1398 0
-1392 -1399 0
-1392 -1400 0
-1393 -1394 0
-1393 -1395 0
-1393 -1396 0
-1393 -1397 0
-1393 -1398 0
-1393 -1399 0
-1393 -1400 0
-1394 -1395 0
-1394 -1396 0
-1394 -1397 0
-1394 -1398 0
-1394 -1399 0
-1394 -1400 0
-1395 -1396 0
-1395 -1397 0
-1395 -1398 0
-1395 -1399 0
-1395 -1400 0
-1396 -1397 0
-1396 -1398 0
-1396 -1399 0
-1396 -1400 0
-1397 -1398 0
-1397 -1399 0
-1397 -1400 0
-1398 -1399 0
-1398 -1400 0
-1399 -1400 0
1401 1402 1403 1404 1405 1406 1407 1408 1409 1410 0
-1401 -1402 0
-1401 -1403 0
-1401 -1404 0
-1401 -1405 0
-1401 -1406 0
-1401 -1407 0
-1401 -1408 0
-1401 -1409 0
-1401 -1410 0
-1402 -1403 0
-1402 -1404 0
-1402 -1405 0
-1402 -1406 0
-1402 -1407 0
-1402 -1408 0
-1402 -1409 0
-1402 -1410 0
-1403 -1404 0
-1403 -1405 0
-1403 -1406 0
-1403 -1407 0
-1403 -1408 0
-1403 -1409 0
-1403 -1410 0
-1404 -1405 0
-1404 -1406 0
-1404 -1407 0
-1404 -1408 0
-1404 -1409 0
-1404 -1410 0
-1405 -1406 0
-1405 -1407 0
-1405 -1408 0
-1405 -1409 0
-1405 -1410 0
-1406 -1407 0
-1406 -1408 0
-1406 -1409 0
-1406 -1410 0
-1407 -1408 0
-1407 -1409 0
-1407 -1410 0
-1408 -1409 0
-1408 -1410 0
-1409 -1410 0
1411 1412 1413 1414 1415 1416 1417 1418 1419 1420 0
-1411 -1412 0
-1411 -1413 0
-1411 -1414 0
-1411 -1415 0
-1411 -1416 0
-1411 -1417 0
-1411 -1418 0
-1411 -1419 0
-1411 -1420 0
-1412 -1413 0
-1412 -1414 0
-1412 -1415 0
-1412 -1416 0
-1412 -1417 0
-1412 -1418 0
-1412 -1419 0
-1412 -1420 0
-1413 -1414 0
-1413 -1415 0
-1413 -1416 0
-1413 -1417 0
-1413 -1418 0
-1413 -1419 0
-1413 -1420 0
-1414 -1415 0
-1414 -1416 0
-1414 -1417 0
-1414 -1418 0
-1414 -1419 0
-1414 -1420 0
-1415 -1416 0
-1415 -1417 0
-1415 -1418 0
-1415 -1419 0
-1415 -1420 0
-1416 -1417 0
-1416 -1418 0
-1416 -1419 0
-1416 -1420 0
-1417 -1418 0
-1417 -1419 0
-1417 -1420 0
-1418 -1419 0
-1418 -1420 0
-1419 -1420 0
1421 1422 1423 1424 1425 1426 1427 1428 1429 1430 0
-1421 -1422 0
-1421 -1423 0
-1421 -1424 0
-1421 -1425 0
-1421 -1426 0
-1421 -1427 0
-1421 -1428 0
-1421 -1429 0
-1421 -1430 0
-1422 -1423 0
-1422 -1424 0
-1422 -1425 0
-1422 -1426 0
-1422 -1427 0
-1422 -1428 0
-1422 -1429 0
-1422 -1430 0
-1423 -1424 0
-1423 -1425 0
-1423 -1426 0
-1423 -1427 0
-1423 -1428 0
-1423 -1429 0
-1423 -1430 0
-1424 -1425 0
-1424 -1426 0
-1424 -1427 0
-1424 -1428 0
-1424 -1429 0
-1424 -1430 0
-1425 -1426 0
-1425 -1427 0
-1425 -1428 0
-1425 -1429 0
-1425 -1430 0
-1426 -1427 0
-1426 -1428 0
-1426 -1429 0
-1426 -1430 0
-1427 -1428 0
-1427 -1429 0
-1427 -1430 0
-1428 -1429 0
-1428 -1430 0
-1429 -1430 0
1431 1432 1433 1434 1435 1436 1437 1438 1439 1440 0
-1431 -1432 0
-1431 -1433 0
-1431 -1434 0
-1431 -1435 0
-1431 -1436 0
-1431 -1437 0
-1431 -1438 0
-1431 -1439 0
-1431 -1440 0
-1432 -1433 0
-1432 -1434 0
-1432 -1435 0
-1432 -1436 0
-1432 -1437 0
-1432 -1438 0
-1432 -1439 0
-1432 -1440 0
-1433 -1434 0
-1433 -1435 0
-1433 -1436 0
-1433 -1437 0
-1433 -1438 0
-1433 -1439 0
-1433 -1440 0
-1434 -1435 0
-1434 -1436 0
-1434 -1437 0
-1434 -1438 0
-1434 -1439 0
-1434 -1440 0
-1435 -1436 0
-1435 -1437 0
-1435 -1438 0
-1435 -1439 0
-1435 -1440 0
-1436 -1437 0
-1436 -1438 0
-1436 -1439 0
-1436 -1440 0
-1437 -1438 0
-1437 -1439 0
-1437 -1440 0
-1438 -1439 0
-1438 -1440 0
-1439 -1440 0
-1 -11 0
-1 -13 0
-1 -14 0
-1 -16 0
-1 -17 0
-1 -18 0
-1 -19 0
-1 -20 0
-1 -121 0
-1 -123 0
-1 -124 0
-1 -126 0
-1 -127 0
-1 -128 0
-1 -129 0
-1 -130 0
-2 -11 0
-2 -12 0
-2 -14 0
-2 -15 0
-2 -16 0
-2 -17 0
-2 -18 0
-2 -19 0
-2 -20 0
-2 -121 0
-2 -122 0
-2 -123 0
-2 -124 0
-2 -125 0
-2 -127 0
-2 -128 0
-2 -129 0
-2 -130 0
-3 -11 0
-3 -12 0
-3 -13 0
-3 -15 0
-3 -16 0
-3 -17 0
-3 -18 0
-3 -19 0
-3 -20 0
-3 -121 0
-3 -122 0
-3 -123 0
-3 -124 0
-3 -125 0
-3 -126 0
-3 -128 0
-3 -129 0
-3 -130 0
-4 -12 0
-4 -13 0
-4 -14 0
-4 -15 0
-4 -16 0
-4 -17 0
-4 -18 0
-4 -19 0
-4 -20 0
-4 -121 0
-4 -122 0
-4 -123 0
-4 -124 0
-4 -125 0
-4 -126 0
-4 -127 0
-4 -129 0
-4 -130 0
-5 -11 0
-5 -12 0
-5 -13 0
-5 -14 0
-5 -15 0
-5 -17 0
-5 -18 0
-5 -20 0
-5 -121 0
-5 -122 0
-5 -124 0
-5 -125 0
-5 -126 0
-5 -127 0
-5 -128 0
-5 -130 0
-6 -11 0
-6 -12 0
-6 -13 0
-6 -14 0
-6 -15 0
-6 -16 0
-6 -18 0
-6 -19 0
-6 -20 0
-6 -121 0
-6 -122 0
-6 -123 0
-6 -125 0
-6 -126 0
-6 -127 0
-6 -128 0
-6 -129 0
-7 -11 0
-7 -12 0
-7 -13 0
-7 -14 0
-7 -15 0
-7 -16 0
-7 -17 0
-7 -19 0
-7 -20 0
-7 -122 0
-7 -123 0
-7 -124 0
-7 -125 0
-7 -126 0
-7 -127 0
-7 -128 0
-7 -129 0
-7 -130 0
-8 -11 0
-8 -13 0
-8 -14 0
-8 -16 0
-8 -17 0
-8 -18 0
-8 -19 0
-8 -20 0
-8 -121 0
-8 -123 0
-8 -124 0
-8 -126 0
-8 -127 0
-8 -128 0
-8 -129 0
-8 -130 0
-9 -11 0
-9 -12 0
-9 -13 0
-9 -14 0
-9 -15 0
-9 -16 0
-9 -17 0
-9 -18 0
-9 -19 0
-9 -121 0
-9 -122 0
-9 -123 0
-9 -125 0
-9 -126 0
-9 -127 0
-9 -128 0
-9 -129 0
-10 -12 0
-10 -13 0
-10 -14 0
-10 -15 0
-10 -16 0
-10 -17 0
-10 -18 0
-10 -19 0
-10 -20 0
-10 -122 0
-10 -123 0
-10 -124 0
-10 -125 0
-10 -126 0
-10 -127 0
-10 -128 0
-10 -129 0
-10 -130 0
-11 -21 0
-11 -23 0
-11 -24 0
-11 -26 0
-11 -27 0
-11 -28 0
-11 -29 0
-11 -30 0
-11 -131 0
-11 -133 0
-11 -134 0
-11 -136 0
-11 -137 0
-11 -138 0
-11 -139 0
-11 -140 0
-12 -21 0
-12 -22 0
-12 -24 0
-12 -25 0
-12 -26 0
-12 -27 0
-12 -28 0
-12 -29 0
-12 -30 0
-12 -131 0
-12 -132 0
-12 -133 0
-12 -134 0
-12 -135 0
-12 -137 0
-12 -138 0
-12 -139 0
-12 -140 0
-13 -21 0
-13 -22 0
-13 -23 0
-13 -25 0
-13 -26 0
-13 -27 0
-13 -28 0
-13 -29 0
-13 -30 0
-13 -131 0
-13 -132 0
-13 -133 0
-13 -134 0
-13 -135 0
-13 -136 0
-13 -138 0
-13 -139 0
-13 -140 0
-14 -22 0
-14 -23 0
-14 -24 0
-14 -25 0
-14 -26 0
-14 -27 0
-14 -28 0
-14 -29 0
-14 -30 0
-14 -131 0
-14 -132 0
-14 -133 0
-14 -134 0
-14 -135 0
-14 -136 0
-14 -137 0
-14 -139 0
-14 -140 0
-15 -21 0
-15 -22 0
-15 -23 0
-15 -24 0
-15 -25 0
-15 -27 0
-15 -28 0
-15 -30 0
-15 -131 0
-15 -132 0
-15 -134 0
-15 -135 0
-15 -136 0
-15 -137 0
-15 -138 0
-15 -140 0
-16 -21 0
-16 -22 0
-16 -23 0
-16 -24 0
-16 -25 0
-16 -26 0
-16 -28 0
-16 -29 0
-16 -30 0
-16 -131 0
-16 -132 0
-16 -133 0
-16 -135 0
-16 -136 0
-16 -137 0
-16 -138 0
-16 -139 0
-17 -21 0
-17 -22 0
-17 -23 0
-17 -24 0
-17 -25 0
-17 -26 0
-17 -27 0
-17 -29 0
-17 -30 0
-17 -132 0
-17 -133 0
-17 -134 0
-17 -135 0
-17 -136 0
-17 -137 0
-17 -138 0
-17 -139 0
-17 -140 0
-18 -21 0
-18 -23 0
-18 -24 0
-18 -26 0
-18 -27 0
-18 -28 0
-18 -29 0
-18 -30 0
-18 -131 0
-18 -133 0
-18 -134 0
-18 -136 0
-18 -137 0
-18 -138 0
-18 -139 0
-18 -140 0
-19 -21 0
-19 -22 0
-19 -23 0
-19 -24 0
-19 -25 0
-19 -26 0
-19 -27 0
-19 -28 0
-19 -29 0
-19 -131 0
-19 -132 0
-19 -133 0
-19 -135 0
-19 -136 0
-19 -137 0
-19 -138 0
-19 -139 0
-20 -22 0
-20 -23 0
-20 -24 0
-20 -25 0
-20 -26 0
-20 -27 0
-20 -28 0
-20 -29 0
-20 -30 0
-20 -132 0
-20 -133 0
-20 -134 0
-20 -135 0
-20 -136 0
-20 -137 0
-20 -138 0
-20 -139 0
-20 -140 0
-21 -31 0
-21 -33 0
-21 -34 0
-21 -36 0
-21 -37 0
-21 -38 0
-21 -39 0
-21 -40 0
-21 -141 0
-21 -143 0
-21 -144 0
-21 -146 0
-21 -147 0
-21 -148 0
-21 -149 0
-21 -150 0
-22 -31 0
-22 -32 0
-22 -34 0
-22 -35 0
-22 -36 0
-22 -37 0
-22 -38 0
-22 -39 0
-22 -40 0
-22 -141 0
-22 -142 0
-22 -143 0
-22 -144 0
-22 -145 0
-22 -147 0
-22 -148 0
-22 -149 0
-22 -150 0
-23 -31 0
-23 -32 0
-23 -33 0
-23 -35 0
-23 -36 0
-23 -37 0
-23 -38 0
-23 -39 0
-23 -40 0
-23 -141 0
-23 -142 0
-23 -143 0
-23 -144 0
-23 -145 0
-23 -146 0
-23 -148 0
-23 -149 0
-23 -150 0
-24 -32 0
-24 -33 0
-24 -34 0
-24 -35 0
-24 -36 0
-24 -37 0
-24 -38 0
-24 -39 0
-24 -40 0
-24 -141 0
-24 -142 0
-24 -143 0
-24 -144 0
-24 -145 0
-24 -146 0
-24 -147 0
-24 -149 0
-24 -150 0
-25 -31 0
-25 -32 0
-25 -33 0
-25 -34 0
-25 -35 0
-25 -37 0
-25 -38 0
-25 -40 0
-25 -141 0
-25 -142 0
-25 -144 0
-25 -145 0
-25 -146 0
-25 -147 0
-25 -148 0
-25 -150 0
-26 -31 0
-26 -32 0
-26 -33 0
-26 -34 0
-26 -35 0
-26 -36 0
-26 -38 0
-26 -39 0
-26 -40 0
-26 -141 0
-26 -142 0
-26 -143 0
-26 -145 0
-26 -146 0
-26 -147 0
-26 -148 0
-26 -149 0
-27 -31 0
-27 -32 0
-27 -33 0
-27 -34 0
-27 -35 0
-27 -36 0
-27 -37 0
-27 -39 0
-27 -40 0
-27 -142 0
-27 -143 0
-27 -144 0
-27 -145 0
-27 -146 0
-27 -147 0
-27 -148 0
-27 -149 0
-27 -150 0
-28 -31 0
-28 -33 0
-28 -34 0
-28 -36 0
-28 -37 0
-28 -38 0
-28 -39 0
-28 -40 0
-28 -141 0
-28 -143 0
-28 -144 0
-28 -146 0
-28 -147 0
-28 -148 0
-28 -149 0
-28 -150 0
-29 -31 0
-29 -32 0
-29 -33 0
-29 -34 0
-29 -35 0
-29 -36 0
-29 -37 0
-29 -38 0
-29 -39 0
-29 -141 0
-29 -142 0
-29 -143 0
-29 -145 0
-29 -146 0
-29 -147 0
-29 -148 0
-29 -149 0
-30 -32 0
-30 -33 0
-30 -34 0
-30 -35 0
-30 -36 0
-30 -37 0
-30 -38 0
-30 -39 0
-30 -40 0
-30 -142 0
-30 -143 0
-30 -144 0
-30 -145 0
-30 -146 0
-30 -147 0
-30 -148 0
-30 -149 0
-30 -150 0
-31 -41 0
-31 -43 0
-31 -44 0
-31 -46 0
-31 -47 0
-31 -48 0
-31 -49 0
-31 -50 0
-31 -151 0
-31 -153 0
-31 -154 0
-31 -156 0
-31 -157 0
-31 -158 0
-31 -159 0
-31 -160 0
-32 -41 0
-32 -42 0
-32 -44 0
-32 -45 0
-32 -46 0
-32 -47 0
-32 -48 0
-32 -49 0
-32 -50 0
-32 -151 0
-32 -152 0
-32 -153 0
-32 -154 0
-32 -155 0
-32 -157 0
-32 -158 0
-32 -159 0
-32 -160 0
-33 -41 0
-33 -42 0
-33 -43 0
-33 -45 0
-33 -46 0
-33 -47 0
-33 -48 0
-33 -49 0
-33 -50 0
-33 -151 0
-33 -152 0
-33 -153 0
-33 -154 0
-33 -155 0
-33 -156 0
-33 -158 0
-33 -159 0
-33 -160 0
-34 -42 0
-34 -43 0
-34 -44 0
-34 -45 0
-34 -46 0
-34 -47 0
-34 -48 0
-34 -49 0
-34 -50 0
-34 -151 0
-34 -152 0
-34 -153 0
-34 -154 0
-34 -155 0
-34 -156 0
-34 -157 0
-34 -159 0
-34 -160 0
-35 -41 0
-35 -42 0
-35 -43 0
-35 -44 0
-35 -45 0
-35 -47 0
-35 -48 0
-35 -50 0
-35 -151 0
-35 -152 0
-35 -154 0
-35 -155 0
-35 -156 0
-35 -157 0
-35 -158 0
-35 -160 0
-36 -41 0
-36 -42 0
-36 -43 0
-36 -44 0
-36 -45 0
-36 -46 0
-36 -48 0
-36 -49 0
-36 -50 0
-36 -151 0
-36 -152 0
-36 -153 0
-36 -155 0
-36 -156 0
-36 -157 0
-36 -158 0
-36 -159 0
-37 -41 0
-37 -42 0
-37 -43 0
-37 -44 0
-37 -45 0
-37 -46 0
-37 -47 0
-37 -49 0
-37 -50 0
-37 -152 0
-37 -153 0
-37 -154 0
-37 -155 0
-37 -156 0
-37 -157 0
-37 -158 0
-37 -159 0
-37 -160 0
-38 -41 0
-38 -43 0
-38 -44 0
-38 -46 0
-38 -47 0
-38 -48 0
-38 -49 0
-38 -50 0
-38 -151 0
-38 -153 0
-38 -154 0
-38 -156 0
-38 -157 0
-38 -158 0
-38 -159 0
-38 -160 0
-39 -41 0
-39 -42 0
-39 -43 0
-39 -44 0
-39 -45 0
-39 -46 0
-39 -47 0
-39 -48 0
-39 -49 0
-39 -151 0
-39 -152 0
-39 -153 0
-39 -155 0
-39 -156 0
-39 -157 0
-39 -158 0
-39 -159 0
-40 -42 0
-40 -43 0
-40 -44 0
-40 -45 0
-40 -46 0
-40 -47 0
-40 -48 0
-40 -49 0
-40 -50 0
-40 -152 0
-40 -153 0
-40 -154 0
-40 -155 0
-40 -156 0
-40 -157 0
-40 -158 0
-40 -159 0
-40 -160 0
-41 -51 0
-41 -53 0
-41 -54 0
-41 -56 0
-41 -57 0
-41 -58 0
-41 -59 0
-41 -60 0
-41 -161 0
-41 -163 0
-41 -164 0
-41 -166 0
-41 -167 0
-41 -168 0
-41 -169 0
-41 -170 0
-42 -51 0
-42 -52 0
-42 -54 0
-42 -55 0
-42 -56 0
-42 -57 0
-42 -58 0
-42 -59 0
-42 -60 0
-42 -161 0
-42 -162 0
-42 -163 0
-42 -164 0
-42 -165 0
-42 -167 0
-42 -168 0
-42 -169 0
-42 -170 0
-43 -51 0
-43 -52 0
-43 -53 0
-43 -55 0
-43 -56 0
-43 -57 0
-43 -58 0
-43 -59 0
-43 -60 0
-43 -161 0
-43 -162 0
-43 -163 0
-43 -164 0
-43 -165 0
-43 -166 0
-43 -168 0
-43 -169 0
-43 -170 0
-44 -52 0
-44 -53 0
-44 -54 0
-44 -55 0
-44 -56 0
-44 -57 0
-44 -58 0
-44 -59 0
-44 -60 0
-44 -161 0
-44 -162 0
-44 -163 0
-44 -164 0
-44 -165 0
-44 -166 0
-44 -167 0
-44 -169 0
-44 -170 0
-45 -51 0
-45 -52 0
-45 -53 0
-45 -54 0
-45 -55 0
-45 -57 0
-45 -58 0
-45 -60 0
-45 -161 0
-45 -162 0
-45 -164 0
-45 -165 0
-45 -166 0
-45 -167 0
-45 -168 0
-45 -170 0
-46 -51 0
-46 -52 0
-46 -53 0
-46 -54 0
-46 -55 0
-46 -56 0
-46 -58 0
-46 -59 0
-46 -60 0
-46 -161 0
-46 -162 0
-46 -163 0
-46 -165 0
-46 -166 0
-46 -167 0
-46 -168 0
-46 -169 0
-47 -51 0
-47 -52 0
-47 -53 0
-47 -54 0
-47 -55 0
-47 -56 0
-47 -57 0
-47 -59 0
-47 -60 0
-47 -162 0
-47 -163 0
-47 -164 0
-47 -165 0
-47 -166 0
-47 -167 0
-47 -168 0
-47 -169 0
-47 -170 0
-48 -51 0
-48 -53 0
-48 -54 0
-48 -56 0
-48 -57 0
-48 -58 0
-48 -59 0
-48 -60 0
-48 -161 0
-48 -163 0
-48 -164 0
-48 -166 0
-48 -167 0
-48 -168 0
-48 -169 0
-48 -170 0
-49 -51 0
-49 -52 0
-49 -53 0
-49 -54 0
-49 -55 0
-49 -56 0
-49 -57 0
-49 -58 0
-49 -59 0
-49 -161 0
-49 -162 0
-49 -163 0
-49 -165 0
-49 -166 0
-49 -167 0
-49 -168 0
-49 -169 0
-50 -52 0
-50 -53 0
-50 -54 0
-50 -55 0
-50 -56 0
-50 -57 0
-50 -58 0
-50 -59 0
-50 -60 0
-50 -162 0
-50 -163 0
-50 -164 0
-50 -165 0
-50 -166 0
-50 -167 0
-50 -168 0
-50 -169 0
-50 -170 0
-51 -61 0
-51 -63 0
-51 -64 0
-51 -66 0
-51 -67 0
-51 -68 0
-51 -69 0
-51 -70 0
-51 -171 0
-51 -173 0
-51 -174 0
-51 -176 0
-51 -177 0
-51 -178 0
-51 -179 0
-51 -180 0
-52 -61 0
-52 -62 0
-52 -64 0
-52 -65 0
-52 -66 0
-52 -67 0
-52 -68 0
-52 -69 0
-52 -70 0
-52 -171 0
-52 -172 0
-52 -173 0
-52 -174 0
-52 -175 0
-52 -177 0
-52 -178 0
-52 -179 0
-52 -180 0
-53 -61 0
-53 -62 0
-53 -63 0
-53 -65 0
-53 -66 0
-53 -67 0
-53 -68 0
-53 -69 0
-53 -70 0
-53 -171 0
-53 -172 0
-53 -173 0
-53 -174 0
-53 -175 0
-53 -176 0
-53 -178 0
-53 -179 0
-53 -180 0
-54 -62 0
-54 -63 0
-54 -64 0
-54 -65 0
-54 -66 0
-54 -67 0
-54 -68 0
-54 -69 0
-54 -70 0
-54 -171 0
-54 -172 0
-54 -173 0
-54 -174 0
-54 -175 0
-54 -176 0
-54 -177 0
-54 -179 0
-54 -180 0
-55 -61 0
-55 -62 0
-55 -63 0
-55 -64 0
-55 -65 0
-55 -67 0
-55 -68 0
-55 -70 0
-55 -171 0
-55 -172 0
-55 -174 0
-55 -175 0
-55 -176 0
-55 -177 0
-55 -178 0
-55 -180 0
-56 -61 0
-56 -62 0
-56 -63 0
-56 -64 0
-56 -65 0
-56 -66 0
-56 -68 0
-56 -69 0
-56 -70 0
-56 -171 0
-56 -172 0
-56 -173 0
-56 -175 0
-56 -176 0
-56 -177 0
-56 -178 0
-56 -179 0
-57 -61 0
-57 -62 0
-57 -63 0
-57 -64 0
-57 -65 0
-57 -66 0
-57 -67 0
-57 -69 0
-57 -70 0
-57 -172 0
-57 -173 0
-57 -174 0
-57 -175 0
-57 -176 0
-57 -177 0
-57 -178 0
-57 -179 0
-57 -180 0
-58 -61 0
-58 -63 0
-58 -64 0
-58 -66 0
-58 -67 0
-58 -68 0
-58 -69 0
-58 -70 0
-58 -171 0
-58 -173 0
-58 -174 0
-58 -176 0
-58 -177 0
-58 -178 0
-58 -179 0
-58 -180 0
-59 -61 0
-59 -62 0
-59 -63 0
-59 -64 0
-59 -65 0
-59 -66 0
-59 -67 0
-59 -68 0
-59 -69 0
-59 -171 0
-59 -172 0
-59 -173 0
-59 -175 0
-59 -176 0
-59 -177 0
-59 -178 0
-59 -179 0
-60 -62 0
-60 -63 0
-60 -64 0
-60 -65 0
-60 -66 0
-60 -67 0
-60 -68 0
-60 -69 0
-60 -70 0
-60 -172 0
-60 -173 0
-60 -174 0
-60 -175 0
-60 -176 0
-60 -177 0
-60 -178 0
-60 -179 0
-60 -180 0
-61 -71 0
-61 -73 0
-61 -74 0
-61 -76 0
-61 -77 0
-61 -78 0
-61 -79 0
-61 -80 0
-61 -181 0
-61 -183 0
-61 -184 0
-61 -186 0
-61 -187 0
-61 -188 0
-61 -189 0
-61 -190 0
-62 -71 0
-62 -72 0
-62 -74 0
-62 -75 0
-62 -76 0
-62 -77 0
-62 -78 0
-62 -79 0
-62 -80 0
-62 -181 0
-62 -182 0
-62 -183 0
-62 -184 0
-62 -185 0
-62 -187 0
-62 -188 0
-62 -189 0
-62 -190 0
-63 -71 0
-63 -72 0
-63 -73 0
-63 -75 0
-63 -76 0
-63 -77 0
-63 -78 0
-63 -79 0
-63 -80 0
-63 -181 0
-63 -182 0
-63 -183 0
-63 -184 0
-63 -185 0
-63 -186 0
-63 -188 0
-63 -189 0
-63 -190 0
-64 -72 0
-64 -73 0
-64 -74 0
-64 -75 0
-64 -76 0
-64 -77 0
-64 -78 0
-64 -79 0
-64 -80 0
-64 -181 0
-64 -182 0
-64 -183 0
-64 -184 0
-64 -185 0
-64 -186 0
-64 -187 0
-64 -189 0
-64 -190 0
-65 -71 0
-65 -72 0
-65 -73 0
-65 -74 0
-65 -75 0
-65 -77 0
-65 -78 0
-65 -80 0
-65 -181 0
-65 -182 0
-65 -184 0
-65 -185 0
-65 -186 0
-65 -187 0
-65 -188 0
-65 -190 0
-66 -71 0
-66 -72 0
-66 -73 0
-66 -74 0
-66 -75 0
-66 -76 0
-66 -78 0
-66 -79 0
-66 -80 0
-66 -181 0
-66 -182 0
-66 -183 0
-66 -185 0
-66 -186 0
-66 -187 0
-66 -188 0
-66 -189 0
-67 -71 0
-67 -72 0
-67 -73 0
-67 -74 0
-67 -75 0
-67 -76 0
-67 -77 0
-67 -79 0
-67 -80 0
-67 -182 0
-67 -183 0
-67 -184 0
-67 -185 0
-67 -186 0
-67 -187 0
-67 -188 0
-67 -189 0
-67 -190 0
-68 -71 0
-68 -73 0
-68 -74 0
-68 -76 0
-68 -77 0
-68 -78 0
-68 -79 0
-68 -80 0
-68 -181 0
-68 -183 0
-68 -184 0
-68 -186 0
-68 -187 0
-68 -188 0
-68 -189 0
-68 -190 0
-69 -71 0
-69 -72 0
-69 -73 0
-69 -74 0
-69 -75 0
-69 -76 0
-69 -77 0
-69 -78 0
-69 -79 0
-69 -181 0
-69 -182 0
-69 -183 0
-69 -185 0
-69 -186 0
-69 -187 0
-69 -188 0
-69 -189 0
-70 -72 0
-70 -73 0
-70 -74 0
-70 -75 0
-70 -76 0
-70 -77 0
-70 -78 0
-70 -79 0
-70 -80 0
-70 -182 0
-70 -183 0
-70 -184 0
-70 -185 0
-70 -186 0
-70 -187 0
-70 -188 0
-70 -189 0
-70 -190 0
-71 -81 0
-71 -83 0
-71 -84 0
-71 -86 0
-71 -87 0
-71 -88 0
-71 -89 0
-71 -90 0
-71 -191 0
-71 -193 0
-71 -194 0
-71 -196 0
-71 -197 0
-71 -198 0
-71 -199 0
-71 -200 0
-72 -81 0
-72 -82 0
-72 -84 0
-72 -85 0
-72 -86 0
-72 -87 0
-72 -88 0
-72 -89 0
-72 -90 0
-72 -191 0
-72 -192 0
-72 -193 0
-72 -194 0
-72 -195 0
-72 -197 0
-72 -198 0
-72 -199 0
-72 -200 0
-73 -81 0
-73 -82 0
-73 -83 0
-73 -85 0
-73 -86 0
-73 -87 0
-73 -88 0
-73 -89 0
-73 -90 0
-73 -191 0
-73 -192 0
-73 -193 0
-73 -194 0
-73 -195 0
-73 -196 0
-73 -198 0
-73 -199 0
-73 -200 0
-74 -82 0
-74 -83 0
-74 -84 0
-74 -85 0
-74 -86 0
-74 -87 0
-74 -88 0
-74 -89 0
-74 -90 0
-74 -191 0
-74 -192 0
-74 -193 0
-74 -194 0
-74 -195 0
-74 -196 0
-74 -197 0
-74 -199 0
-74 -200 0
-75 -81 0
-75 -82 0
-75 -83 0
-75 -84 0
-75 -85 0
-75 -87 0
-75 -88 0
-75 -90 0
-75 -191 0
-75 -192 0
-75 -194 0
-75 -195 0
-75 -196 0
-75 -197 0
-75 -198 0
-75 -200 0
-76 -81 0
-76 -82 0
-76 -83 0
-76 -84 0
-76 -85 0
-76 -86 0
-76 -88 0
-76 -89 0
-76 -90 0
-76 -191 0
-76 -192 0
-76 -193 0
-76 -195 0
-76 -196 0
-76 -197 0
-76 -198 0
-76 -199 0
-77 -81 0
-77 -82 0
-77 -83 0
-77 -84 0
-77 -85 0
-77 -86 0
-77 -87 0
-77 -89 0
-77 -90 0
-77 -192 0
-77 -193 0
-77 -194 0
-77 -195 0
-77 -196 0
-77 -197 0
-77 -198 0
-77 -199 0
-77 -200 0
-78 -81 0
-78 -83 0
-78 -84 0
-78 -86 0
-78 -87 0
-78 -88 0
-78 -89 0
-78 -90 0
-78 -191 0
-78 -193 0
-78 -194 0
-78 -196 0
-78 -197 0
-78 -198 0
-78 -199 0
-78 -200 0
-79 -81 0
-79 -82 0
-79 -83 0
-79 -84 0
-79 -85 0
-79 -86 0
-79 -87 0
-79 -88 0
-79 -89 0
-79 -191 0
-79 -192 0
-79 -193 0
-79 -195 0
-79 -196 0
-79 -197 0
-79 -198 0
-79 -199 0
-80 -82 0
-80 -83 0
-80 -84 0
-80 -85 0
-80 -86 0
-80 -87 0
-80 -88 0
-80 -89 0
-80 -90 0
-80 -192 0
-80 -193 0
-80 -194 0
-80 -195 0
-80 -196 0
-80 -197 0
-80 -198 0
-80 -199 0
-80 -200 0
-81 -91 0
-81 -93 0
-81 -94 0
-81 -96 0
-81 -97 0
-81 -98 0
-81 -99 0
-81 -100 0
-81 -201 0
-81 -203 0
-81 -204 0
-81 -206 0
-81 -207 0
-81 -208 0
-81 -209 0
-81 -210 0
-82 -91 0
-82 -92 0
-82 -94 0
-82 -95 0
-82 -96 0
-82 -97 0
-82 -98 0
-82 -99 0
-82 -100 0
-82 -201 0
-82 -202 0
-82 -203 0
-82 -204 0
-82 -205 0
-82 -207 0
-82 -208 0
-82 -209 0
-82 -210 0
-83 -91 0
-83 -92 0
-83 -93 0
-83 -95 0
-83 -96 0
-83 -97 0
-83 -98 0
-83 -99 0
-83 -100 0
-83 -201 0
-83 -202 0
-83 -203 0
-83 -204 0
-83 -205 0
-83 -206 0
-83 -208 0
-83 -209 0
-83 -210 0
-84 -92 0
-84 -93 0
-84 -94 0
-84 -95 0
-84 -96 0
-84 -97 0
-84 -98 0
-84 -99 0
-84 -100 0
-84 -201 0
-84 -202 0
-84 -203 0
-84 -204 0
-84 -205 0
-84 -206 0
-84 -207 0
-84 -209 0
-84 -210 0
-85 -91 0
-85 -92 0
-85 -93 0
-85 -94 0
-85 -95 0
-85 -97 0
-85 -98 0
-85 -100 0
-85 -201 0
-85 -202 0
-85 -204 0
-85 -205 0
-85 -206 0
-85 -207 0
-85 -208 0
-85 -210 0
-86 -91 0
-86 -92 0
-86 -93 0
-86 -94 0
-86 -95 0
-86 -96 0
-86 -98 0
-86 -99 0
-86 -100 0
-86 -201 0
-86 -202 0
-86 -203 0
-86 -205 0
-86 -206 0
-86 -207 0
-86 -208 0
-86 -209 0
-87 -91 0
-87 -92 0
-87 -93 0
-87 -94 0
-87 -95 0
-87 -96 0
-87 -97 0
-87 -99 0
-87 -100 0
-87 -202 0
-87 -203 0
-87 -204 0
-87 -205 0
-87 -206 0
-87 -207 0
-87 -208 0
-87 -209 0
-87 -210 0
-88 -91 0
-88 -93 0
-88 -94 0
-88 -96 0
-88 -97 0
-88 -98 0
-88 -99 0
-88 -100 0
-88 -201 0
-88 -203 0
-88 -204 0
-88 -206 0
-88 -207 0
-88 -208 0
-88 -209 0
-88 -210 0
-89 -91 0
-89 -92 0
-89 -93 0
-89 -94 0
-89 -95 0
-89 -96 0
-89 -97 0
-89 -98 0
-89 -99 0
-89 -201 0
-89 -202 0
-89 -203 0
-89 -205 0
-89 -206 0
-89 -207 0
-89 -208 0
-89 -209 0
-90 -92 0
-90 -93 0
-90 -94 0
-90 -95 0
-90 -96 0
-90 -97 0
-90 -98 0
-90 -99 0
-90 -100 0
-90 -202 0
-90 -203 0
-90 -204 0
-90 -205 0
-90 -206 0
-90 -207 0
-90 -208 0
-90 -209 0
-90 -210 0
-91 -101 0
-91 -103 0
-91 -104 0
-91 -106 0
-91 -107 0
-91 -108 0
-91 -109 0
-91 -110 0
-91 -211 0
-91 -213 0
-91 -214 0
-91 -216 0
-91 -217 0
-91 -218 0
-91 -219 0
-91 -220 0
-92 -101 0
-92 -102 0
-92 -104 0
-92 -105 0
-92 -106 0
-92 -107 0
-92 -108 0
-92 -109 0
-92 -110 0
-92 -211 0
-92 -212 0
-92 -213 0
-92 -214 0
-92 -215 0
-92 -217 0
-92 -218 0
-92 -219 0
-92 -220 0
-93 -101 0
-93 -102 0
-93 -103 0
-93 -105 0
-93 -106 0
-93 -107 0
-93 -108 0
-93 -109 0
-93 -110 0
-93 -211 0
-93 -212 0
-93 -213 0
-93 -214 0
-93 -215 0
-93 -216 0
-93 -218 0
-93 -219 0
-93 -220 0
-94 -102 0
-94 -103 0
-94 -104 0
-94 -105 0
-94 -106 0
-94 -107 0
-94 -108 0
-94 -109 0
-94 -110 0
-94 -211 0
-94 -212 0
-94 -213 0
-94 -214 0
-94 -215 0
-94 -216 0
-94 -217 0
-94 -219 0
-94 -220 0
-95 -101 0
-95 -102 0
-95 -103 0
-95 -104 0
-95 -105 0
-95 -107 0
-95 -108 0
-95 -110 0
-95 -211 0
-95 -212 0
-95 -214 0
-95 -215 0
-95 -216 0
-95 -217 0
-95 -218 0
-95 -220 0
-96 -101 0
-96 -102 0
-96 -103 0
-96 -104 0
-96 -105 0
-96 -106 0
-96 -108 0
-96 -109 0
-96 -110 0
-96 -211 0
-96 -212 0
-96 -213 0
-96 -215 0
-96 -216 0
-96 -217 0
-96 -218 0
-96 -219 0
-97 -101 0
-97 -102 0
-97 -103 0
-97 -104 0
-97 -105 0
-97 -106 0
-97 -107 0
-97 -109 0
-97 -110 0
-97 -212 0
-97 -213 0
-97 -214 0
-97 -215 0
-97 -216 0
-97 -217 0
-97 -218 0
-97 -219 0
-97 -220 0
-98 -101 0
-98 -103 0
-98 -104 0
-98 -106 0
-98 -107 0
-98 -108 0
-98 -109 0
-98 -110 0
-98 -211 0
-98 -213 0
-98 -214 0
-98 -216 0
-98 -217 0
-98 -218 0
-98 -219 0
-98 -220 0
-99 -101 0
-99 -102 0
-99 -103 0
-99 -104 0
-99 -105 0
-99 -106 0
-99 -107 0
-99 -108 0
-99 -109 0
-99 -211 0
-99 -212 0
-99 -213 0
-99 -215 0
-99 -216 0
-99 -217 0
-99 -218 0
-99 -219 0
-100 -102 0
-100 -103 0
-100 -104 0
-100 -105 0
-100 -106 0
-100 -107 0
-100 -108 0
-100 -109 0
-100 -110 0
-100 -212 0
-100 -213 0
-100 -214 0
-100 -215 0
-100 -216 0
-100 -217 0
-100 -218 0
-100 -219 0
-100 -220 0
-101 -111 0
-101 -113 0
-101 -114 0
-101 -116 0
-101 -117 0
-101 -118 0
-101 -119 0
-101 -120 0
-101 -221 0
-101 -223 0
-101 -224 0
-101 -226 0
-101 -227 0
-101 -228 0
-101 -229 0
-101 -230 0
-102 -111 0
-102 -112 0
-102 -114 0
-102 -115 0
-102 -116 0
-102 -117 0
-102 -118 0
-102 -119 0
-102 -120 0
-102 -221 0
-102 -222 0
-102 -223 0
-102 -224 0
-102 -225 0
-102 -227 0
-102 -228 0
-102 -229 0
-102 -230 0
-103 -111 0
-103 -112 0
-103 -113 0
-103 -115 0
-103 -116 0
-103 -117 0
-103 -118 0
-103 -119 0
-103 -120 0
-103 -221 0
-103 -222 0
-103 -223 0
-103 -224 0
-103 -225 0
-103 -226 0
-103 -228 0
-103 -229 0
-103 -230 0
-104 -112 0
-104 -113 0
-104 -114 0
-104 -115 0
-104 -116 0
-104 -117 0
-104 -118 0
-104 -119 0
-104 -120 0
-104 -221 0
-104 -222 0
-104 -223 0
-104 -224 0
-104 -225 0
-104 -226 0
-104 -227 0
-104 -229 0
-104 -230 0
-105 -111 0
-105 -112 0
-105 -113 0
-105 -114 0
-105 -115 0
-105 -117 0
-105 -118 0
-105 -120 0
-105 -221 0
-105 -222 0
-105 -224 0
-105 -225 0
-105 -226 0
-105 -227 0
-105 -228 0
-105 -230 0
-106 -111 0
-106 -112 0
-106 -113 0
-106 -114 0
-106 -115 0
-106 -116 0
-106 -118 0
-106 -119 0
-106 -120 0
-106 -221 0
-106 -222 0
-106 -223 0
-106 -225 0
-106 -226 0
-106 -227 0
-106 -228 0
-106 -229 0
-107 -111 0
-107 -112 0
-107 -113 0
-107 -114 0
-107 -115 0
-107 -116 0
-107 -117 0
-107 -119 0
-107 -120 0
-107 -222 0
-107 -223 0
-107 -224 0
-107 -225 0
-107 -226 0
-107 -227 0
-107 -228 0
-107 -229 0
-107 -230 0
-108 -111 0
-108 -113 0
-108 -114 0
-108 -116 0
-108 -117 0
-108 -118 0
-108 -119 0
-108 -120 0
-108 -221 0
-108 -223 0
-108 -224 0
-108 -226 0
-108 -227 0
-108 -228 0
-108 -229 0
-108 -230 0
-109 -111 0
-109 -112 0
-109 -113 0
-109 -114 0
-109 -115 0
-109 -116 0
-109 -117 0
-109 -118 0
-109 -119 0
-109 -221 0
-109 -222 0
-109 -223 0
-109 -225 0
-109 -226 0
-109 -227 0
-109 -228 0
-109 -229 0
-110 -112 0
-110 -113 0
-110 -114 0
-110 -115 0
-110 -116 0
-110 -117 0
-110 -118 0
-110 -119 0
-110 -120 0
-110 -222 0
-110 -223 0
-110 -224 0
-110 -225 0
-110 -226 0
-110 -227 0
-110 -228 0
-110 -229 0
-110 -230 0
-111 -231 0
-111 -233 0
-111 -234 0
-111 -236 0
-111 -237 0
-111 -238 0
-111 -239 0
-111 -240 0
-112 -231 0
-112 -232 0
-112 -233 0
-112 -234 0
-112 -235 0
-112 -237 0
-112 -238 0
-112 -239 0
-112 -240 0
-113 -231 0
-113 -232 0
-113 -233 0
-113 -234 0
-113 -235 0
-113 -236 0
-113 -238 0
-113 -239 0
-113 -240 0
-114 -231 0
-114 -232 0
-114 -233 0
-114 -234 0
-114 -235 0
-114 -236 0
-114 -237 0
-114 -239 0
-114 -240 0
-115 -231 0
-115 -232 0
-115 -234 0
-115 -235 0
-115 -236 0
-115 -237 0
-115 -238 0
-115 -240 0
-116 -231 0
-116 -232 0
-116 -233 0
-116 -235 0
-116 -236 0
-116 -237 0
-116 -238 0
-116 -239 0
-117 -232 0
-117 -233 0
-117 -234 0
-117 -235 0
-117 -236 0
-117 -237 0
-117 -238 0
-117 -239 0
-117 -240 0
-118 -231 0
-118 -233 0
-118 -234 0
-118 -236 0
-118 -237 0
-118 -238 0
-118 -239 0
-118 -240 0
-119 -231 0
-119 -232 0
-119 -233 0
-119 -235 0
-119 -236 0
-119 -237 0
-119 -238 0
-119 -239 0
-120 -232 0
-120 -233 0
-120 -234 0
-120 -235 0
-120 -236 0
-120 -237 0
-120 -238 0
-120 -239 0
-120 -240 0
-121 -131 0
-121 -133 0
-121 -134 0
-121 -136 0
-121 -137 0
-121 -138 0
-121 -139 0
-121 -140 0
-121 -241 0
-121 -243 0
-121 -244 0
-121 -246 0
-121 -247 0
-121 -248 0
-121 -249 0
-121 -250 0
-122 -131 0
-122 -132 0
-122 -134 0
-122 -135 0
-122 -136 0
-122 -137 0
-122 -138 0
-122 -139 0
-122 -140 0
-122 -241 0
-122 -242 0
-122 -243 0
-122 -244 0
-122 -245 0
-122 -247 0
-122 -248 0
-122 -249 0
-122 -250 0
-123 -131 0
-123 -132 0
-123 -133 0
-123 -135 0
-123 -136 0
-123 -137 0
-123 -138 0
-123 -139 0
-123 -140 0
-123 -241 0
-123 -242 0
-123 -243 0
-123 -244 0
-123 -245 0
-123 -246 0
-123 -248 0
-123 -249 0
-123 -250 0
-124 -132 0
-124 -133 0
-124 -134 0
-124 -135 0
-124 -136 0
-124 -137 0
-124 -138 0
-124 -139 0
-124 -140 0
-124 -241 0
-124 -242 0
-124 -243 0
-124 -244 0
-124 -245 0
-124 -246 0
-124 -247 0
-124 -249 0
-124 -250 0
-125 -131 0
-125 -132 0
-125 -133 0
-125 -134 0
-125 -135 0
-125 -137 0
-125 -138 0
-125 -140 0
-125 -241 0
-125 -242 0
-125 -244 0
-125 -245 0
-125 -246 0
-125 -247 0
-125 -248 0
-125 -250 0
-126 -131 0
-126 -132 0
-126 -133 0
-126 -134 0
-126 -135 0
-126 -136 0
-126 -138 0
-126 -139 0
-126 -140 0
-126 -241 0
-126 -242 0
-126 -243 0
-126 -245 0
-126 -246 0
-126 -247 0
-126 -248 0
-126 -249 0
-127 -131 0
-127 -132 0
-127 -133 0
-127 -134 0
-127 -135 0
-127 -136 0
-127 -137 0
-127 -139 0
-127 -140 0
-127 -242 0
-127 -243 0
-127 -244 0
-127 -245 0
-127 -246 0
-127 -247 0
-127 -248 0
-127 -249 0
-127 -250 0
-128 -131 0
-128 -133 0
-128 -134 0
-128 -136 0
-128 -137 0
-128 -138 0
-128 -139 0
-128 -140 0
-128 -241 0
-128 -243 0
-128 -244 0
-128 -246 0
-128 -247 0
-128 -248 0
-128 -249 0
-128 -250 0
-129 -131 0
-129 -132 0
-129 -133 0
-129 -134 0
-129 -135 0
-129 -136 0
-129 -137 0
-129 -138 0
-129 -139 0
-129 -241 0
-129 -242 0
-129 -243 0
-129 -245 0
-129 -246 0
-129 -247 0
-129 -248 0
-129 -249 0
-130 -132 0
-130 -133 0
-130 -134 0
-130 -135 0
-130 -136 0
-130 -137 0
-130 -138 0
-130 -139 0
-130 -140 0
-130 -242 0
-130 -243 0
-130 -244 0
-130 -245 0
-130 -246 0
-130 -247 0
-130 -248 0
-130 -249 0
-130 -250 0
-131 -141 0
-131 -143 0
-131 -144 0
-131 -146 0
-131 -147 0
-131 -148 0
-131 -149 0
-131 -150 0
-131 -251 0
-131 -253 0
-131 -254 0
-131 -256 0
-131 -257 0
-131 -258 0
-131 -259 0
-131 -260 0
-132 -141 0
-132 -142 0
-132 -144 0
-132 -145 0
-132 -146 0
-132 -147 0
-132 -148 0
-132 -149 0
-132 -150 0
-132 -251 0
-132 -252 0
-132 -253 0
-132 -254 0
-132 -255 0
-132 -257 0
-132 -258 0
-132 -259 0
-132 -260 0
-133 -141 0
-133 -142 0
-133 -143 0
-133 -145 0
-133 -146 0
-133 -147 0
-133 -148 0
-133 -149 0
-133 -150 0
-133 -251 0
-133 -252 0
-133 -253 0
-133 -254 0
-133 -255 0
-133 -256 0
-133 -258 0
-133 -259 0
-133 -260 0
-134 -142 0
-134 -143 0
-134 -144 0
-134 -145 0
-134 -146 0
-134 -147 0
-134 -148 0
-134 -149 0
-134 -150 0
-134 -251 0
-134 -252 0
-134 -253 0
-134 -254 0
-134 -255 0
-134 -256 0
-134 -257 0
-134 -259 0
-134 -260 0
-135 -141 0
-135 -142 0
-135 -143 0
-135 -144 0
-135 -145 0
-135 -147 0
-135 -148 0
-135 -150 0
-135 -251 0
-135 -252 0
-135 -254 0
-135 -255 0
-135 -256 0
-135 -257 0
-135 -258 0
-135 -260 0
-136 -141 0
-136 -142 0
-136 -143 0
-136 -144 0
-136 -145 0
-136 -146 0
-136 -148 0
-136 -149 0
-136 -150 0
-136 -251 0
-136 -252 0
-136 -253 0
-136 -255 0
-136 -256 0
-136 -257 0
-136 -258 0
-136 -259 0
-137 -141 0
-137 -142 0
-137 -143 0
-137 -144 0
-137 -145 0
-137 -146 0
-137 -147 0
-137 -149 0
-137 -150 0
-137 -252 0
-137 -253 0
-137 -254 0
-137 -255 0
-137 -256 0
-137 -257 0
-137 -258 0
-137 -259 0
-137 -260 0
-138 -141 0
-138 -143 0
-138 -144 0
-138 -146 0
-138 -147 0
-138 -148 0
-138 -149 0
-138 -150 0
-138 -251 0
-138 -253 0
-138 -254 0
-138 -256 0
-138 -257 0
-138 -258 0
-138 -259 0
-138 -260 0
-139 -141 0
-139 -142 0
-139 -143 0
-139 -144 0
-139 -145 0
-139 -146 0
-139 -147 0
-139 -148 0
-139 -149 0
-139 -251 0
-139 -252 0
-139 -253 0
-139 -255 0
-139 -256 0
-139 -257 0
-139 -258 0
-139 -259 0
-140 -142 0
-140 -143 0
-140 -144 0
-140 -145 0
-140 -146 0
-140 -147 0
-140 -148 0
-140 -149 0
-140 -150 0
-140 -252 0
-140 -253 0
-140 -254 0
-140 -255 0
-140 -256 0
-140 -257 0
-140 -258 0
-140 -259 0
-140 -260 0
-141 -151 0
-141 -153 0
-141 -154 0
-141 -156 0
-141 -157 0
-141 -158 0
-141 -159 0
-141 -160 0
-141 -261 0
-141 -263 0
-141 -264 0
-141 -266 0
-141 -267 0
-141 -268 0
-141 -269 0
-141 -270 0
-142 -151 0
-142 -152 0
-142 -154 0
-142 -155 0
-142 -156 0
-142 -157 0
-142 -158 0
-142 -159 0
-142 -160 0
-142 -261 0
-142 -262 0
-142 -263 0
-142 -264 0
-142 -265 0
-142 -267 0
-142 -268 0
-142 -269 0
-142 -270 0
-143 -151 0
-143 -152 0
-143 -153 0
-143 -155 0
-143 -156 0
-143 -157 0
-143 -158 0
-143 -159 0
-143 -160 0
-143 -261 0
-143 -262 0
-143 -263 0
-143 -264 0
-143 -265 0
-143 -266 0
-143 -268 0
-143 -269 0
-143 -270 0
-144 -152 0
-144 -153 0
-144 -154 0
-144 -155 0
-144 -156 0
-144 -157 0
-144 -158 0
-144 -159 0
-144 -160 0
-144 -261 0
-144 -262 0
-144 -263 0
-144 -264 0
-144 -265 0
-144 -266 0
-144 -267 0
-144 -269 0
-144 -270 0
-145 -151 0
-145 -152 0
-145 -153 0
-145 -154 0
-145 -155 0
-145 -157 0
-145 -158 0
-145 -160 0
-145 -261 0
-145 -262 0
-145 -264 0
-145 -265 0
-145 -266 0
-145 -267 0
-145 -268 0
-145 -270 0
-146 -151 0
-146 -152 0
-146 -153 0
-146 -154 0
-146 -155 0
-146 -156 0
-146 -158 0
-146 -159 0
-146 -160 0
-146 -261 0
-146 -262 0
-146 -263 0
-146 -265 0
-146 -266 0
-146 -267 0
-146 -268 0
-146 -269 0
-147 -151 0
-147 -152 0
-147 -153 0
-147 -154 0
-147 -155 0
-147 -156 0
-147 -157 0
-147 -159 0
-147 -160 0
-147 -262 0
-147 -263 0
-147 -264 0
-147 -265 0
-147 -266 0
-147 -267 0
-147 -268 0
-147 -269 0
-147 -270 0
-148 -151 0
-148 -153 0
-148 -154 0
-148 -156 0
-148 -157 0
-148 -158 0
-148 -159 0
-148 -160 0
-148 -261 0
-148 -263 0
-148 -264 0
-148 -266 0
-148 -267 0
-148 -268 0
-148 -269 0
-148 -270 0
-149 -151 0
-149 -152 0
-149 -153 0
-149 -154 0
-149 -155 0
-149 -156 0
-149 -157 0
-149 -158 0
-149 -159 0
-149 -261 0
-149 -262 0
-149 -263 0
-149 -265 0
-149 -266 0
-149 -267 0
-149 -268 0
-149 -269 0
-150 -152 0
-150 -153 0
-150 -154 0
-150 -155 0
-150 -156 0
-150 -157 0
-150 -158 0
-150 -159 0
-150 -160 0
-150 -262 0
-150 -263 0
-150 -264 0
-150 -265 0
-150 -266 0
-150 -267 0
-150 -268 0
-150 -269 0
-150 -270 0
-151 -161 0
-151 -163 0
-151 -164 0
-151 -166 0
-151 -167 0
-151 -168 0
-151 -169 0
-151 -170 0
-151 -271 0
-151 -273 0
-151 -274 0
-151 -276 0
-151 -277 0
-151 -278 0
-151 -279 0
-151 -280 0
-152 -161 0
-152 -162 0
-152 -164 0
-152 -165 0
-152 -166 0
-152 -167 0
-152 -168 0
-152 -169 0
-152 -170 0
-152 -271 0
-152 -272 0
-152 -273 0
-152 -274 0
-152 -275 0
-152 -277 0
-152 -278 0
-152 -279 0
-152 -280 0
-153 -161 0
-153 -162 0
-153 -163 0
-153 -165 0
-153 -166 0
-153 -167 0
-153 -168 0
-153 -169 0
-153 -170 0
-153 -271 0
-153 -272 0
-153 -273 0
-153 -274 0
-153 -275 0
-153 -276 0
-153 -278 0
-153 -279 0
-153 -280 0
-154 -162 0
-154 -163 0
-154 -164 0
-154 -165 0
-154 -166 0
-154 -167 0
-154 -168 0
-154 -169 0
-154 -170 0
-154 -271 0
-154 -272 0
-154 -273 0
-154 -274 0
-154 -275 0
-154 -276 0
-154 -277 0
-154 -279 0
-154 -280 0
-155 -161 0
-155 -162 0
-155 -163 0
-155 -164 0
-155 -165 0
-155 -167 0
-155 -168 0
-155 -170 0
-155 -271 0
-155 -272 0
-155 -274 0
-155 -275 0
-155 -276 0
-155 -277 0
-155 -278 0
-155 -280 0
-156 -161 0
-156 -162 0
-156 -163 0
-156 -164 0
-156 -165 0
-156 -166 0
-156 -168 0
-156 -169 0
-156 -170 0
-156 -271 0
-156 -272 0
-156 -273 0
-156 -275 0
-156 -276 0
-156 -277 0
-156 -278 0
-156 -279 0
-157 -161 0
-157 -162 0
-157 -163 0
-157 -164 0
-157 -165 0
-157 -166 0
-157 -167 0
-157 -169 0
-157 -170 0
-157 -272 0
-157 -273 0
-157 -274 0
-157 -275 0
-157 -276 0
-157 -277 0
-157 -278 0
-157 -279 0
-157 -280 0
-158 -161 0
-158 -163 0
-158 -164 0
-158 -166 0
-158 -167 0
-158 -168 0
-158 -169 0
-158 -170 0
-158 -271 0
-158 -273 0
-158 -274 0
-158 -276 0
-158 -277 0
-158 -278 0
-158 -279 0
-158 -280 0
-159 -161 0
-159 -162 0
-159 -163 0
-159 -164 0
-159 -165 0
-159 -166 0
-159 -167 0
-159 -168 0
-159 -169 0
-159 -271 0
-159 -272 0
-159 -273 0
-159 -275 0
-159 -276 0
-159 -277 0
-159 -278 0
-159 -279 0
-160 -162 0
-160 -163 0
-160 -164 0
-160 -165 0
-160 -166 0
-160 -167 0
-160 -168 0
-160 -169 0
-160 -170 0
-160 -272 0
-160 -273 0
-160 -274 0
-160 -275 0
-160 -276 0
-160 -277 0
-160 -278 0
-160 -279 0
-160 -280 0
-161 -171 0
-161 -173 0
-161 -174 0
-161 -176 0
-161 -177 0
-161 -178 0
-161 -179 0
-161 -180 0
-161 -281 0
-161 -283 0
-161 -284 0
-161 -286 0
-161 -287 0
-161 -288 0
-161 -289 0
-161 -290 0
-162 -171 0
-162 -172 0
-162 -174 0
-162 -175 0
-162 -176 0
-162 -177 0
-162 -178 0
-162 -179 0
-162 -180 0
-162 -281 0
-162 -282 0
-162 -283 0
-162 -284 0
-162 -285 0
-162 -287 0
-162 -288 0
-162 -289 0
-162 -290 0
-163 -171 0
-163 -172 0
-163 -173 0
-163 -175 0
-163 -176 0
-163 -177 0
-163 -178 0
-163 -179 0
-163 -180 0
-163 -281 0
-163 -282 0
-163 -283 0
-163 -284 0
-163 -285 0
-163 -286 0
-163 -288 0
-163 -289 0
-163 -290 0
-164 -172 0
-164 -173 0
-164 -174 0
-164 -175 0
-164 -176 0
-164 -177 0
-164 -178 0
-164 -179 0
-164 -180 0
-164 -281 0
-164 -282 0
-164 -283 0
-164 -284 0
-164 -285 0
-164 -286 0
-164 -287 0
-164 -289 0
-164 -290 0
-165 -171 0
-165 -172 0
-165 -173 0
-165 -174 0
-165 -175 0
-165 -177 0
-165 -178 0
-165 -180 0
-165 -281 0
-165 -282 0
-165 -284 0
-165 -285 0
-165 -286 0
-165 -287 0
-165 -288 0
-165 -290 0
-166 -171 0
-166 -172 0
-166 -173 0
-166 -174 0
-166 -175 0
-166 -176 0
-166 -178 0
-166 -179 0
-166 -180 0
-166 -281 0
-166 -282 0
-166 -283 0
-166 -285 0
-166 -286 0
-166 -287 0
-166 -288 0
-166 -289 0
-167 -171 0
-167 -172 0
-167 -173 0
-167 -174 0
-167 -175 0
-167 -176 0
-167 -177 0
-167 -179 0
-167 -180 0
-167 -282 0
-167 -283 0
-167 -284 0
-167 -285 0
-167 -286 0
-167 -287 0
-167 -288 0
-167 -289 0
-167 -290 0
-168 -171 0
-168 -173 0
-168 -174 0
-168 -176 0
-168 -177 0
-168 -178 0
-168 -179 0
-168 -180 0
-168 -281 0
-168 -283 0
-168 -284 0
-168 -286 0
-168 -287 0
-168 -288 0
-168 -289 0
-168 -290 0
-169 -171 0
-169 -172 0
-169 -173 0
-169 -174 0
-169 -175 0
-169 -176 0
-169 -177 0
-169 -178 0
-169 -179 0
-169 -281 0
-169 -282 0
-169 -283 0
-169 -285 0
-169 -286 0
-169 -287 0
-169 -288 0
-169 -289 0
-170 -172 0
-170 -173 0
-170 -174 0
-170 -175 0
-170 -176 0
-170 -177 0
-170 -178 0
-170 -179 0
-170 -180 0
-170 -282 0
-170 -283 0
-170 -284 0
-170 -285 0
-170 -286 0
-170 -287 0
-170 -288 0
-170 -289 0
-170 -290 0
-171 -181 0
-171 -183 0
-171 -184 0
-171 -186 0
-171 -187 0
-171 -188 0
-171 -189 0
-171 -190 0
-171 -291 0
-171 -293 0
-171 -294 0
-171 -296 0
-171 -297 0
-171 -298 0
-171 -299 0
-171 -300 0
-172 -181 0
-172 -182 0
-172 -184 0
-172 -185 0
-172 -186 0
-172 -187 0
-172 -188 0
-172 -189 0
-172 -190 0
-172 -291 0
-172 -292 0
-172 -293 0
-172 -294 0
-172 -295 0
-172 -297 0
-172 -298 0
-172 -299 0
-172 -300 0
-173 -181 0
-173 -182 0
-173 -183 0
-173 -185 0
-173 -186 0
-173 -187 0
-173 -188 0
-173 -189 0
-173 -190 0
-173 -291 0
-173 -292 0
-173 -293 0
-173 -294 0
-173 -295 0
-173 -296 0
-173 -298 0
-173 -299 0
-173 -300 0
-174 -182 0
-174 -183 0
-174 -184 0
-174 -185 0
-174 -186 0
-174 -187 0
-174 -188 0
-174 -189 0
-174 -190 0
-174 -291 0
-174 -292 0
-174 -293 0
-174 -294 0
-174 -295 0
-174 -296 0
-174 -297 0
-174 -299 0
-174 -300 0
-175 -181 0
-175 -182 0
-175 -183 0
-175 -184 0
-175 -185 0
-175 -187 0
-175 -188 0
-175 -190 0
-175 -291 0
-175 -292 0
-175 -294 0
-175 -295 0
-175 -296 0
-175 -297 0
-175 -298 0
-175 -300 0
-176 -181 0
-176 -182 0
-176 -183 0
-176 -184 0
-176 -185 0
-176 -186 0
-176 -188 0
-176 -189 0
-176 -190 0
-176 -291 0
-176 -292 0
-176 -293 0
-176 -295 0
-176 -296 0
-176 -297 0
-176 -298 0
-176 -299 0
-177 -181 0
-177 -182 0
-177 -183 0
-177 -184 0
-177 -185 0
-177 -186 0
-177 -187 0
-177 -189 0
-177 -190 0
-177 -292 0
-177 -293 0
-177 -294 0
-177 -295 0
-177 -296 0
-177 -297 0
-177 -298 0
-177 -299 0
-177 -300 0
-178 -181 0
-178 -183 0
-178 -184 0
-178 -186 0
-178 -187 0
-178 -188 0
-178 -189 0
-178 -190 0
-178 -291 0
-178 -293 0
-178 -294 0
-178 -296 0
-178 -297 0
-178 -298 0
-178 -299 0
-178 -300 0
-179 -181 0
-179 -182 0
-179 -183 0
-179 -184 0
-179 -185 0
-179 -186 0
-179 -187 0
-179 -188 0
-179 -189 0
-179 -291 0
-179 -292 0
-179 -293 0
-179 -295 0
-179 -296 0
-179 -297 0
-179 -298 0
-179 -299 0
-180 -182 0
-180 -183 0
-180 -184 0
-180 -185 0
-180 -186 0
-180 -187 0
-180 -188 0
-180 -189 0
-180 -190 0
-180 -292 0
-180 -293 0
-180 -294 0
-180 -295 0
-180 -296 0
-180 -297 0
-180 -298 0
-180 -299 0
-180 -300 0
-181 -191 0
-181 -193 0
-181 -194 0
-181 -196 0
-181 -197 0
-181 -198 0
-181 -199 0
-181 -200 0
-181 -301 0
-181 -303 0
-181 -304 0
-181 -306 0
-181 -307 0
-181 -308 0
-181 -309 0
-181 -310 0
-182 -191 0
-182 -192 0
-182 -194 0
-182 -195 0
-182 -196 0
-182 -197 0
-182 -198 0
-182 -199 0
-182 -200 0
-182 -301 0
-182 -302 0
-182 -303 0
-182 -304 0
-182 -305 0
-182 -307 0
-182 -308 0
-182 -309 0
-182 -310 0
-183 -191 0
-183 -192 0
-183 -193 0
-183 -195 0
-183 -196 0
-183 -197 0
-183 -198 0
-183 -199 0
-183 -200 0
-183 -301 0
-183 -302 0
-183 -303 0
-183 -304 0
-183 -305 0
-183 -306 0
-183 -308 0
-183 -309 0
-183 -310 0
-184 -192 0
-184 -193 0
-184 -194 0
-184 -195 0
-184 -196 0
-184 -197 0
-184 -198 0
-184 -199 0
-184 -200 0
-184 -301 0
-184 -302 0
-184 -303 0
-184 -304 0
-184 -305 0
-184 -306 0
-184 -307 0
-184 -309 0
-184 -310 0
-185 -191 0
-185 -192 0
-185 -193 0
-185 -194 0
-185 -195 0
-185 -197 0
-185 -198 0
-185 -200 0
-185 -301 0
-185 -302 0
-185 -304 0
-185 -305 0
-185 -306 0
-185 -307 0
-185 -308 0
-185 -310 0
-186 -191 0
-186 -192 0
-186 -193 0
-186 -194 0
-186 -195 0
-186 -196 0
-186 -198 0
-186 -199 0
-186 -200 0
-186 -301 0
-186 -302 0
-186 -303 0
-186 -305 0
-186 -306 0
-186 -307 0
-186 -308 0
-186 -309 0
-187 -191 0
-187 -192 0
-187 -193 0
-187 -194 0
-187 -195 0
-187 -196 0
-187 -197 0
-187 -199 0
-187 -200 0
-187 -302 0
-187 -303 0
-187 -304 0
-187 -305 0
-187 -306 0
-187 -307 0
-187 -308 0
-187 -309 0
-187 -310 0
-188 -191 0
-188 -193 0
-188 -194 0
-188 -196 0
-188 -197 0
-188 -198 0
-188 -199 0
-188 -200 0
-188 -301 0
-188 -303 0
-188 -304 0
-188 -306 0
-188 -307 0
-188 -308 0
-188 -309 0
-188 -310 0
-189 -191 0
-189 -192 0
-189 -193 0
-189 -194 0
-189 -195 0
-189 -196 0
-189 -197 0
-189 -198 0
-189 -199 0
-189 -301 0
-189 -302 0
-189 -303 0
-189 -305 0
-189 -306 0
-189 -307 0
-189 -308 0
-189 -309 0
-190 -192 0
-190 -193 0
-190 -194 0
-190 -195 0
-190 -196 0
-190 -197 0
-190 -198 0
-190 -199 0
-190 -200 0
-190 -302 0
-190 -303 0
-190 -304 0
-190 -305 0
-190 -306 0
-190 -307 0
-190 -308 0
-190 -309 0
-190 -310 0
-191 -201 0
-191 -203 0
-191 -204 0
-191 -206 0
-191 -207 0
-191 -208 0
-191 -209 0
-191 -210 0
-191 -311 0
-191 -313 0
-191 -314 0
-191 -316 0
-191 -317 0
-191 -318 0
-191 -319 0
-191 -320 0
-192 -201 0
-192 -202 0
-192 -204 0
-192 -205 0
-192 -206 0
-192 -207 0
-192 -208 0
-192 -209 0
-192 -210 0
-192 -311 0
-192 -312 0
-192 -313 0
-192 -314 0
-192 -315 0
-192 -317 0
-192 -318 0
-192 -319 0
-192 -320 0
-193 -201 0
-193 -202 0
-193 -203 0
-193 -205 0
-193 -206 0
-193 -207 0
-193 -208 0
-193 -209 0
-193 -210 0
-193 -311 0
-193 -312 0
-193 -313 0
-193 -314 0
-193 -315 0
-193 -316 0
-193 -318 0
-193 -319 0
-193 -320 0
-194 -202 0
-194 -203 0
-194 -204 0
-194 -205 0
-194 -206 0
-194 -207 0
-194 -208 0
-194 -209 0
-194 -210 0
-194 -311 0
-194 -312 0
-194 -313 0
-194 -314 0
-194 -315 0
-194 -316 0
-194 -317 0
-194 -319 0
-194 -320 0
-195 -201 0
-195 -202 0
-195 -203 0
-195 -204 0
-195 -205 0
-195 -207 0
-195 -208 0
-195 -210 0
-195 -311 0
-195 -312 0
-195 -314 0
-195 -315 0
-195 -316 0
-195 -317 0
-195 -318 0
-195 -320 0
-196 -201 0
-196 -202 0
-196 -203 0
-196 -204 0
-196 -205 0
-196 -206 0
-196 -208 0
-196 -209 0
-196 -210 0
-196 -311 0
-196 -312 0
-196 -313 0
-196 -315 0
-196 -316 0
-196 -317 0
-196 -318 0
-196 -319 0
-197 -201 0
-197 -202 0
-197 -203 0
-197 -204 0
-197 -205 0
-197 -206 0
-197 -207 0
-197 -209 0
-197 -210 0
-197 -312 0
-197 -313 0
-197 -314 0
-197 -315 0
-197 -316 0
-197 -317 0
-197 -318 0
-197 -319 0
-197 -320 0
-198 -201 0
-198 -203 0
-198 -204 0
-198 -206 0
-198 -207 0
-198 -208 0
-198 -209 0
-198 -210 0
-198 -311 0
-198 -313 0
-198 -314 0
-198 -316 0
-198 -317 0
-198 -318 0
-198 -319 0
-198 -320 0
-199 -201 0
-199 -202 0
-199 -203 0
-199 -204 0
-199 -205 0
-199 -206 0
-199 -207 0
-199 -208 0
-199 -209 0
-199 -311 0
-199 -312 0
-199 -313 0
-199 -315 0
-199 -316 0
-199 -317 0
-199 -318 0
-199 -319 0
-200 -202 0
-200 -203 0
-200 -204 0
-200 -205 0
-200 -206 0
-200 -207 0
-200 -208 0
-200 -209 0
-200 -210 0
-200 -312 0
-200 -313 0
-200 -314 0
-200 -315 0
-200 -316 0
-200 -317 0
-200 -318 0
-200 -319 0
-200 -320 0
-201 -211 0
-201 -213 0
-201 -214 0
-201 -216 0
-201 -217 0
-201 -218 0
-201 -219 0
-201 -220 0
-201 -321 0
-201 -323 0
-201 -324 0
-201 -326 0
-201 -327 0
-201 -328 0
-201 -329 0
-201 -330 0
-202 -211 0
-202 -212 0
-202 -214 0
-202 -215 0
-202 -216 0
-202 -217 0
-202 -218 0
-202 -219 0
-202 -220 0
-202 -321 0
-202 -322 0
-202 -323 0
-202 -324 0
-202 -325 0
-202 -327 0
-202 -328 0
-202 -329 0
-202 -330 0
-203 -211 0
-203 -212 0
-203 -213 0
-203 -215 0
-203 -216 0
-203 -217 0
-203 -218 0
-203 -219 0
-203 -220 0
-203 -321 0
-203 -322 0
-203 -323 0
-203 -324 0
-203 -325 0
-203 -326 0
-203 -328 0
-203 -329 0
-203 -330 0
-204 -212 0
-204 -213 0
-204 -214 0
-204 -215 0
-204 -216 0
-204 -217 0
-204 -218 0
-204 -219 0
-204 -220 0
-204 -321 0
-204 -322 0
-204 -323 0
-204 -324 0
-204 -325 0
-204 -326 0
-204 -327 0
-204 -329 0
-204 -330 0
-205 -211 0
-205 -212 0
-205 -213 0
-205 -214 0
-205 -215 0
-205 -217 0
-205 -218 0
-205 -220 0
-205 -321 0
-205 -322 0
-205 -324 0
-205 -325 0
-205 -326 0
-205 -327 0
-205 -328 0
-205 -330 0
-206 -211 0
-206 -212 0
-206 -213 0
-206 -214 0
-206 -215 0
-206 -216 0
-206 -218 0
-206 -219 0
-206 -220 0
-206 -321 0
-206 -322 0
-206 -323 0
-206 -325 0
-206 -326 0
-206 -327 0
-206 -328 0
-206 -329 0
-207 -211 0
-207 -212 0
-207 -213 0
-207 -214 0
-207 -215 0
-207 -216 0
-207 -217 0
-207 -219 0
-207 -220 0
-207 -322 0
-207 -323 0
-207 -324 0
-207 -325 0
-207 -326 0
-207 -327 0
-207 -328 0
-207 -329 0
-207 -330 0
-208 -211 0
-208 -213 0
-208 -214 0
-208 -216 0
-208 -217 0
-208 -218 0
-208 -219 0
-208 -220 0
-208 -321 0
-208 -323 0
-208 -324 0
-208 -326 0
-208 -327 0
-208 -328 0
-208 -329 0
-208 -330 0
-209 -211 0
-209 -212 0
-209 -213 0
-209 -214 0
-209 -215 0
-209 -216 0
-209 -217 0
-209 -218 0
-209 -219 0
-209 -321 0
-209 -322 0
-209 -323 0
-209 -325 0
-209 -326 0
-209 -327 0
-209 -328 0
-209 -329 0
-210 -212 0
-210 -213 0
-210 -214 0
-210 -215 0
-210 -216 0
-210 -217 0
-210 -218 0
-210 -219 0
-210 -220 0
-210 -322 0
-210 -323 0
-210 -324 0
-210 -325 0
-210 -326 0
-210 -327 0
-210 -328 0
-210 -329 0
-210 -330 0
-211 -221 0
-211 -223 0
-211 -224 0
-211 -226 0
-211 -227 0
-211 -228 0
-211 -229 0
-211 -230 0
-211 -331 0
-211 -333 0
-211 -334 0
-211 -336 0
-211 -337 0
-211 -338 0
-211 -339 0
-211 -340 0
-212 -221 0
-212 -222 0
-212 -224 0
-212 -225 0
-212 -226 0
-212 -227 0
-212 -228 0
-212 -229 0
-212 -230 0
-212 -331 0
-212 -332 0
-212 -333 0
-212 -334 0
-212 -335 0
-212 -337 0
-212 -338 0
-212 -339 0
-212 -340 0
-213 -221 0
-213 -222 0
-213 -223 0
-213 -225 0
-213 -226 0
-213 -227 0
-213 -228 0
-213 -229 0
-213 -230 0
-213 -331 0
-213 -332 0
-213 -333 0
-213 -334 0
-213 -335 0
-213 -336 0
-213 -338 0
-213 -339 0
-213 -340 0
-214 -222 0
-214 -223 0
-214 -224 0
-214 -225 0
-214 -226 0
-214 -227 0
-214 -228 0
-214 -229 0
-214 -230 0
-214 -331 0
-214 -332 0
-214 -333 0
-214 -334 0
-214 -335 0
-214 -336 0
-214 -337 0
-214 -339 0
-214 -340 0
-215 -221 0
-215 -222 0
-215 -223 0
-215 -224 0
-215 -225 0
-215 -227 0
-215 -228 0
-215 -230 0
-215 -331 0
-215 -332 0
-215 -334 0
-215 -335 0
-215 -336 0
-215 -337 0
-215 -338 0
-215 -340 0
-216 -221 0
-216 -222 0
-216 -223 0
-216 -224 0
-216 -225 0
-216 -226 0
-216 -228 0
-216 -229 0
-216 -230 0
-216 -331 0
-216 -332 0
-216 -333 0
-216 -335 0
-216 -336 0
-216 -337 0
-216 -338 0
-216 -339 0
-217 -221 0
-217 -222 0
-217 -223 0
-217 -224 0
-217 -225 0
-217 -226 0
-217 -227 0
-217 -229 0
-217 -230 0
-217 -332 0
-217 -333 0
-217 -334 0
-217 -335 0
-217 -336 0
-217 -337 0
-217 -338 0
-217 -339 0
-217 -340 0
-218 -221 0
-218 -223 0
-218 -224 0
-218 -226 0
-218 -227 0
-218 -228 0
-218 -229 0
-218 -230 0
-218 -331 0
-218 -333 0
-218 -334 0
-218 -336 0
-218 -337 0
-218 -338 0
-218 -339 0
-218 -340 0
-219 -221 0
-219 -222 0
-219 -223 0
-219 -224 0
-219 -225 0
-219 -226 0
-219 -227 0
-219 -228 0
-219 -229 0
-219 -331 0
-219 -332 0
-219 -333 0
-219 -335 0
-219 -336 0
-219 -337 0
-219 -338 0
-219 -339 0
-220 -222 0
-220 -223 0
-220 -224 0
-220 -225 0
-220 -226 0
-220 -227 0
-220 -228 0
-220 -229 0
-220 -230 0
-220 -332 0
-220 -333 0
-220 -334 0
-220 -335 0
-220 -336 0
-220 -337 0
-220 -338 0
-220 -339 0
-220 -340 0
-221 -231 0
-221 -233 0
-221 -234 0
-221 -236 0
-221 -237 0
-221 -238 0
-221 -239 0
-221 -240 0
-221 -341 0
-221 -343 0
-221 -344 0
-221 -346 0
-221 -347 0
-221 -348 0
-221 -349 0
-221 -350 0
-222 -231 0
-222 -232 0
-222 -234 0
-222 -235 0
-222 -236 0
-222 -237 0
-222 -238 0
-222 -239 0
-222 -240 0
-222 -341 0
-222 -342 0
-222 -343 0
-222 -344 0
-222 -345 0
-222 -347 0
-222 -348 0
-222 -349 0
-222 -350 0
-223 -231 0
-223 -232 0
-223 -233 0
-223 -235 0
-223 -236 0
-223 -237 0
-223 -238 0
-223 -239 0
-223 -240 0
-223 -341 0
-223 -342 0
-223 -343 0
-223 -344 0
-223 -345 0
-223 -346 0
-223 -348 0
-223 -349 0
-223 -350 0
-224 -232 0
-224 -233 0
-224 -234 0
-224 -235 0
-224 -236 0
-224 -237 0
-224 -238 0
-224 -239 0
-224 -240 0
-224 -341 0
-224 -342 0
-224 -343 0
-224 -344 0
-224 -345 0
-224 -346 0
-224 -347 0
-224 -349 0
-224 -350 0
-225 -231 0
-225 -232 0
-225 -233 0
-225 -234 0
-225 -235 0
-225 -237 0
-225 -238 0
-225 -240 0
-225 -341 0
-225 -342 0
-225 -344 0
-225 -345 0
-225 -346 0
-225 -347 0
-225 -348 0
-225 -350 0
-226 -231 0
-226 -232 0
-226 -233 0
-226 -234 0
-226 -235 0
-226 -236 0
-226 -238 0
-226 -239 0
-226 -240 0
-226 -341 0
-226 -342 0
-226 -343 0
-226 -345 0
-226 -346 0
-226 -347 0
-226 -348 0
-226 -349 0
-227 -231 0
-227 -232 0
-227 -233 0
-227 -234 0
-227 -235 0
-227 -236 0
-227 -237 0
-227 -239 0
-227 -240 0
-227 -342 0
-227 -343 0
-227 -344 0
-227 -345 0
-227 -346 0
-227 -347 0
-227 -348 0
-227 -349 0
-227 -350 0
-228 -231 0
-228 -233 0
-228 -234 0
-228 -236 0
-228 -237 0
-228 -238 0
-228 -239 0
-228 -240 0
-228 -341 0
-228 -343 0
-228 -344 0
-228 -346 0
-228 -347 0
-228 -348 0
-228 -349 0
-228 -350 0
-229 -231 0
-229 -232 0
-229 -233 0
-229 -234 0
-229 -235 0
-229 -236 0
-229 -237 0
-229 -238 0
-229 -239 0
-229 -341 0
-229 -342 0
-229 -343 0
-229 -345 0
-229 -346 0
-229 -347 0
-229 -348 0
-229 -349 0
-230 -232 0
-230 -233 0
-230 -234 0
-230 -235 0
-230 -236 0
-230 -237 0
-230 -238 0
-230 -239 0
-230 -240 0
-230 -342 0
-230 -343 0
-230 -344 0
-230 -345 0
-230 -346 0
-230 -347 0
-230 -348 0
-230 -349 0
-230 -350 0
-231 -351 0
-231 -353 0
-231 -354 0
-231 -356 0
-231 -357 0
-231 -358 0
-231 -359 0
-231 -360 0
-232 -351 0
-232 -352 0
-232 -353 0
-232 -354 0
-232 -355 0
-232 -357 0
-232 -358 0
-232 -359 0
-232 -360 0
-233 -351 0
-233 -352 0
-233 -353 0
-233 -354 0
-233 -355 0
-233 -356 0
-233 -358 0
-233 -359 0
-233 -360 0
-234 -351 0
-234 -352 0
-234 -353 0
-234 -354 0
-234 -355 0
-234 -356 0
-234 -357 0
-234 -359 0
-234 -360 0
-235 -351 0
-235 -352 0
-235 -354 0
-235 -355 0
-235 -356 0
-235 -357 0
-235 -358 0
-235 -360 0
-236 -351 0
-236 -352 0
-236 -353 0
-236 -355 0
-236 -356 0
-236 -357 0
-236 -358 0
-236 -359 0
-237 -352 0
-237 -353 0
-237 -354 0
-237 -355 0
-237 -356 0
-237 -357 0
-237 -358 0
-237 -359 0
-237 -360 0
-238 -351 0
-238 -353 0
-238 -354 0
-238 -356 0
-238 -357 0
-238 -358 0
-238 -359 0
-238 -360 0
-239 -351 0
-239 -352 0
-239 -353 0
-239 -355 0
-239 -356 0
-239 -357 0
-239 -358 0
-239 -359 0
-240 -352 0
-240 -353 0
-240 -354 0
-240 -355 0
-240 -356 0
-240 -357 0
-240 -358 0
-240 -359 0
-240 -360 0
-241 -251 0
-241 -253 0
-241 -254 0
-241 -256 0
-241 -257 0
-241 -258 0
-241 -259 0
-241 -260 0
-241 -361 0
-241 -363 0
-241 -364 0
-241 -366 0
-241 -367 0
-241 -368 0
-241 -369 0
-241 -370 0
-242 -251 0
-242 -252 0
-242 -254 0
-242 -255 0
-242 -256 0
-242 -257 0
-242 -258 0
-242 -259 0
-242 -260 0
-242 -361 0
-242 -362 0
-242 -363 0
-242 -364 0
-242 -365 0
-242 -367 0
-242 -368 0
-242 -369 0
-242 -370 0
-243 -251 0
-243 -252 0
-243 -253 0
-243 -255 0
-243 -256 0
-243 -257 0
-243 -258 0
-243 -259 0
-243 -260 0
-243 -361 0
-243 -362 0
-243 -363 0
-243 -364 0
-243 -365 0
-243 -366 0
-243 -368 0
-243 -369 0
-243 -370 0
-244 -252 0
-244 -253 0
-244 -254 0
-244 -255 0
-244 -256 0
-244 -257 0
-244 -258 0
-244 -259 0
-244 -260 0
-244 -361 0
-244 -362 0
-244 -363 0
-244 -364 0
-244 -365 0
-244 -366 0
-244 -367 0
-244 -369 0
-244 -370 0
-245 -251 0
-245 -252 0
-245 -253 0
-245 -254 0
-245 -255 0
-245 -257 0
-245 -258 0
-245 -260 0
-245 -361 0
-245 -362 0
-245 -364 0
-245 -365 0
-245 -366 0
-245 -367 0
-245 -368 0
-245 -370 0
-246 -251 0
-246 -252 0
-246 -253 0
-246 -254 0
-246 -255 0
-246 -256 0
-246 -258 0
-246 -259 0
-246 -260 0
-246 -361 0
-246 -362 0
-246 -363 0
-246 -365 0
-246 -366 0
-246 -367 0
-246 -368 0
-246 -369 0
-247 -251 0
-247 -252 0
-247 -253 0
-247 -254 0
-247 -255 0
-247 -256 0
-247 -257 0
-247 -259 0
-247 -260 0
-247 -362 0
-247 -363 0
-247 -364 0
-247 -365 0
-247 -366 0
-247 -367 0
-247 -368 0
-247 -369 0
-247 -370 0
-248 -251 0
-248 -253 0
-248 -254 0
-248 -256 0
-248 -257 0
-248 -258 0
-248 -259 0
-248 -260 0
-248 -361 0
-248 -363 0
-248 -364 0
-248 -366 0
-248 -367 0
-248 -368 0
-248 -369 0
-248 -370 0
-249 -251 0
-249 -252 0
-249 -253 0
-249 -254 0
-249 -255 0
-249 -256 0
-249 -257 0
-249 -258 0
-249 -259 0
-249 -361 0
-249 -362 0
-249 -363 0
-249 -365 0
-249 -366 0
-249 -367 0
-249 -368 0
-249 -369 0
-250 -252 0
-250 -253 0
-250 -254 0
-250 -255 0
-250 -256 0
-250 -257 0
-250 -258 0
-250 -259 0
-250 -260 0
-250 -362 0
-250 -363 0
-250 -364 0
-250 -365 0
-250 -366 0
-250 -367 0
-250 -368 0
-250 -369 0
-250 -370 0
-251 -261 0
-251 -263 0
-251 -264 0
-251 -266 0
-251 -267 0
-251 -268 0
-251 -269 0
-251 -270 0
-251 -371 0
-251 -373 0
-251 -374 0
-251 -376 0
-251 -377 0
-251 -378 0
-251 -379 0
-251 -380 0
-252 -261 0
-252 -262 0
-252 -264 0
-252 -265 0
-252 -266 0
-252 -267 0
-252 -268 0
-252 -269 0
-252 -270 0
-252 -371 0
-252 -372 0
-252 -373 0
-252 -374 0
-252 -375 0
-252 -377 0
-252 -378 0
-252 -379 0
-252 -380 0
-253 -261 0
-253 -262 0
-253 -263 0
-253 -265 0
-253 -266 0
-253 -267 0
-253 -268 0
-253 -269 0
-253 -270 0
-253 -371 0
-253 -372 0
-253 -373 0
-253 -374 0
-253 -375 0
-253 -376 0
-253 -378 0
-253 -379 0
-253 -380 0
-254 -262 0
-254 -263 0
-254 -264 0
-254 -265 0
-254 -266 0
-254 -267 0
-254 -268 0
-254 -269 0
-254 -270 0
-254 -371 0
-254 -372 0
-254 -373 0
-254 -374 0
-254 -375 0
-254 -376 0
-254 -377 0
-254 -379 0
-254 -380 0
-255 -261 0
-255 -262 0
-255 -263 0
-255 -264 0
-255 -265 0
-255 -267 0
-255 -268 0
-255 -270 0
-255 -371 0
-255 -372 0
-255 -374 0
-255 -375 0
-255 -376 0
-255 -377 0
-255 -378 0
-255 -380 0
-256 -261 0
-256 -262 0
-256 -263 0
-256 -264 0
-256 -265 0
-256 -266 0
-256 -268 0
-256 -269 0
-256 -270 0
-256 -371 0
-256 -372 0
-256 -373 0
-256 -375 0
-256 -376 0
-256 -377 0
-256 -378 0
-256 -379 0
-257 -261 0
-257 -262 0
-257 -263 0
-257 -264 0
-257 -265 0
-257 -266 0
-257 -267 0
-257 -269 0
-257 -270 0
-257 -372 0
-257 -373 0
-257 -374 0
-257 -375 0
-257 -376 0
-257 -377 0
-257 -378 0
-257 -379 0
-257 -380 0
-258 -261 0
-258 -263 0
-258 -264 0
-258 -266 0
-258 -267 0
-258 -268 0
-258 -269 0
-258 -270 0
-258 -371 0
-258 -373 0
-258 -374 0
-258 -376 0
-258 -377 0
-258 -378 0
-258 -379 0
-258 -380 0
-259 -261 0
-259 -262 0
-259 -263 0
-259 -264 0
-259 -265 0
-259 -266 0
-259 -267 0
-259 -268 0
-259 -269 0
-259 -371 0
-259 -372 0
-259 -373 0
-259 -375 0
-259 -376 0
-259 -377 0
-259 -378 0
-259 -379 0
-260 -262 0
-260 -263 0
-260 -264 0
-260 -265 0
-260 -266 0
-260 -267 0
-260 -268 0
-260 -269 0
-260 -270 0
-260 -372 0
-260 -373 0
-260 -374 0
-260 -375 0
-260 -376 0
-260 -377 0
-260 -378 0
-260 -379 0
-260 -380 0
-261 -271 0
-261 -273 0
-261 -274 0
-261 -276 0
-261 -277 0
-261 -278 0
-261 -279 0
-261 -280 0
-261 -381 0
-261 -383 0
-261 -384 0
-261 -386 0
-261 -387 0
-261 -388 0
-261 -389 0
-261 -390 0
-262 -271 0
-262 -272 0
-262 -274 0
-262 -275 0
-262 -276 0
-262 -277 0
-262 -278 0
-262 -279 0
-262 -280 0
-262 -381 0
-262 -382 0
-262 -383 0
-262 -384 0
-262 -385 0
-262 -387 0
-262 -388 0
-262 -389 0
-262 -390 0
-263 -271 0
-263 -272 0
-263 -273 0
-263 -275 0
-263 -276 0
-263 -277 0
-263 -278 0
-263 -279 0
-263 -280 0
-263 -381 0
-263 -382 0
-263 -383 0
-263 -384 0
-263 -385 0
-263 -386 0
-263 -388 0
-263 -389 0
-263 -390 0
-264 -272 0
-264 -273 0
-264 -274 0
-264 -275 0
-264 -276 0
-264 -277 0
-264 -278 0
-264 -279 0
-264 -280 0
-264 -381 0
-264 -382 0
-264 -383 0
-264 -384 0
-264 -385 0
-264 -386 0
-264 -387 0
-264 -389 0
-264 -390 0
-265 -271 0
-265 -272 0
-265 -273 0
-265 -274 0
-265 -275 0
-265 -277 0
-265 -278 0
-265 -280 0
-265 -381 0
-265 -382 0
-265 -384 0
-265 -385 0
-265 -386 0
-265 -387 0
-265 -388 0
-265 -390 0
-266 -271 0
-266 -272 0
-266 -273 0
-266 -274 0
-266 -275 0
-266 -276 0
-266 -278 0
-266 -279 0
-266 -280 0
-266 -381 0
-266 -382 0
-266 -383 0
-266 -385 0
-266 -386 0
-266 -387 0
-266 -388 0
-266 -389 0
-267 -271 0
-267 -272 0
-267 -273 0
-267 -274 0
-267 -275 0
-267 -276 0
-267 -277 0
-267 -279 0
-267 -280 0
-267 -382 0
-267 -383 0
-267 -384 0
-267 -385 0
-267 -386 0
-267 -387 0
-267 -388 0
-267 -389 0
-267 -390 0
-268 -271 0
-268 -273 0
-268 -274 0
-268 -276 0
-268 -277 0
-268 -278 0
-268 -279 0
-268 -280 0
-268 -381 0
-268 -383 0
-268 -384 0
-268 -386 0
-268 -387 0
-268 -388 0
-268 -389 0
-268 -390 0
-269 -271 0
-269 -272 0
-269 -273 0
-269 -274 0
-269 -275 0
-269 -276 0
-269 -277 0
-269 -278 0
-269 -279 0
-269 -381 0
-269 -382 0
-269 -383 0
-269 -385 0
-269 -386 0
-269 -387 0
-269 -388 0
-269 -389 0
-270 -272 0
-270 -273 0
-270 -274 0
-270 -275 0
-270 -276 0
-270 -277 0
-270 -278 0
-270 -279 0
-270 -280 0
-270 -382 0
-270 -383 0
-270 -384 0
-270 -385 0
-270 -386 0
-270 -387 0
-270 -388 0
-270 -389 0
-270 -390 0
-271 -281 0
-271 -283 0
-271 -284 0
-271 -286 0
-271 -287 0
-271 -288 0
-271 -289 0
-271 -290 0
-271 -391 0
-271 -393 0
-271 -394 0
-271 -396 0
-271 -397 0
-271 -398 0
-271 -399 0
-271 -400 0
-272 -281 0
-272 -282 0
-272 -284 0
-272 -285 0
-272 -286 0
-272 -287 0
-272 -288 0
-272 -289 0
-272 -290 0
-272 -391 0
-272 -392 0
-272 -393 0
-272 -394 0
-272 -395 0
-272 -397 0
-272 -398 0
-272 -399 0
-272 -400 0
-273 -281 0
-273 -282 0
-273 -283 0
-273 -285 0
-273 -286 0
-273 -287 0
-273 -288 0
-273 -289 0
-273 -290 0
-273 -391 0
-273 -392 0
-273 -393 0
-273 -394 0
-273 -395 0
-273 -396 0
-273 -398 0
-273 -399 0
-273 -400 0
-274 -282 0
-274 -283 0
-274 -284 0
-274 -285 0
-274 -286 0
-274 -287 0
-274 -288 0
-274 -289 0
-274 -290 0
-274 -391 0
-274 -392 0
-274 -393 0
-274 -394 0
-274 -395 0
-274 -396 0
-274 -397 0
-274 -399 0
-274 -400 0
-275 -281 0
-275 -282 0
-275 -283 0
-275 -284 0
-275 -285 0
-275 -287 0
-275 -288 0
-275 -290 0
-275 -391 0
-275 -392 0
-275 -394 0
-275 -395 0
-275 -396 0
-275 -397 0
-275 -398 0
-275 -400 0
-276 -281 0
-276 -282 0
-276 -283 0
-276 -284 0
-276 -285 0
-276 -286 0
-276 -288 0
-276 -289 0
-276 -290 0
-276 -391 0
-276 -392 0
-276 -393 0
-276 -395 0
-276 -396 0
-276 -397 0
-276 -398 0
-276 -399 0
-277 -281 0
-277 -282 0
-277 -283 0
-277 -284 0
-277 -285 0
-277 -286 0
-277 -287 0
-277 -289 0
-277 -290 0
-277 -392 0
-277 -393 0
-277 -394 0
-277 -395 0
-277 -396 0
-277 -397 0
-277 -398 0
-277 -399 0
-277 -400 0
-278 -281 0
-278 -283 0
-278 -284 0
-278 -286 0
-278 -287 0
-278 -288 0
-278 -289 0
-278 -290 0
-278 -391 0
-278 -393 0
-278 -394 0
-278 -396 0
-278 -397 0
-278 -398 0
-278 -399 0
-278 -400 0
-279 -281 0
-279 -282 0
-279 -283 0
-279 -284 0
-279 -285 0
-279 -286 0
-279 -287 0
-279 -288 0
-279 -289 0
-279 -391 0
-279 -392 0
-279 -393 0
-279 -395 0
-279 -396 0
-279 -397 0
-279 -398 0
-279 -399 0
-280 -282 0
-280 -283 0
-280 -284 0
-280 -285 0
-280 -286 0
-280 -287 0
-280 -288 0
-280 -289 0
-280 -290 0
-280 -392 0
-280 -393 0
-280 -394 0
-280 -395 0
-280 -396 0
-280 -397 0
-280 -398 0
-280 -399 0
-280 -400 0
-281 -291 0
-281 -293 0
-281 -294 0
-281 -296 0
-281 -297 0
-281 -298 0
-281 -299 0
-281 -300 0
-281 -401 0
-281 -403 0
-281 -404 0
-281 -406 0
-281 -407 0
-281 -408 0
-281 -409 0
-281 -410 0
-282 -291 0
-282 -292 0
-282 -294 0
-282 -295 0
-282 -296 0
-282 -297 0
-282 -298 0
-282 -299 0
-282 -300 0
-282 -401 0
-282 -402 0
-282 -403 0
-282 -404 0
-282 -405 0
-282 -407 0
-282 -408 0
-282 -409 0
-282 -410 0
-283 -291 0
-283 -292 0
-283 -293 0
-283 -295 0
-283 -296 0
-283 -297 0
-283 -298 0
-283 -299 0
-283 -300 0
-283 -401 0
-283 -402 0
-283 -403 0
-283 -404 0
-283 -405 0
-283 -406 0
-283 -408 0
-283 -409 0
-283 -410 0
-284 -292 0
-284 -293 0
-284 -294 0
-284 -295 0
-284 -296 0
-284 -297 0
-284 -298 0
-284 -299 0
-284 -300 0
-284 -401 0
-284 -402 0
-284 -403 0
-284 -404 0
-284 -405 0
-284 -406 0
-284 -407 0
-284 -409 0
-284 -410 0
-285 -291 0
-285 -292 0
-285 -293 0
-285 -294 0
-285 -295 0
-285 -297 0
-285 -298 0
-285 -300 0
-285 -401 0
-285 -402 0
-285 -404 0
-285 -405 0
-285 -406 0
-285 -407 0
-285 -408 0
-285 -410 0
-286 -291 0
-286 -292 0
-286 -293 0
-286 -294 0
-286 -295 0
-286 -296 0
-286 -298 0
-286 -299 0
-286 -300 0
-286 -401 0
-286 -402 0
-286 -403 0
-286 -405 0
-286 -406 0
-286 -407 0
-286 -408 0
-286 -409 0
-287 -291 0
-287 -292 0
-287 -293 0
-287 -294 0
-287 -295 0
-287 -296 0
-287 -297 0
-287 -299 0
-287 -300 0
-287 -402 0
-287 -403 0
-287 -404 0
-287 -405 0
-287 -406 0
-287 -407 0
-287 -408 0
-287 -409 0
-287 -410 0
-288 -291 0
-288 -293 0
-288 -294 0
-288 -296 0
-288 -297 0
-288 -298 0
-288 -299 0
-288 -300 0
-288 -401 0
-288 -403 0
-288 -404 0
-288 -406 0
-288 -407 0
-288 -408 0
-288 -409 0
-288 -410 0
-289 -291 0
-289 -292 0
-289 -293 0
-289 -294 0
-289 -295 0
-289 -296 0
-289 -297 0
-289 -298 0
-289 -299 0
-289 -401 0
-289 -402 0
-289 -403 0
-289 -405 0
-289 -406 0
-289 -407 0
-289 -408 0
-289 -409 0
-290 -292 0
-290 -293 0
-290 -294 0
-290 -295 0
-290 -296 0
-290 -297 0
-290 -298 0
-290 -299 0
-290 -300 0
-290 -402 0
-290 -403 0
-290 -404 0
-290 -405 0
-290 -406 0
-290 -407 0
-290 -408 0
-290 -409 0
-290 -410 0
-291 -301 0
-291 -303 0
-291 -304 0
-291 -306 0
-291 -307 0
-291 -308 0
-291 -309 0
-291 -310 0
-291 -411 0
-291 -413 0
-291 -414 0
-291 -416 0
-291 -417 0
-291 -418 0
-291 -419 0
-291 -420 0
-292 -301 0
-292 -302 0
-292 -304 0
-292 -305 0
-292 -306 0
-292 -307 0
-292 -308 0
-292 -309 0
-292 -310 0
-292 -411 0
-292 -412 0
-292 -413 0
-292 -414 0
-292 -415 0
-292 -417 0
-292 -418 0
-292 -419 0
-292 -420 0
-293 -301 0
-293 -302 0
-293 -303 0
-293 -305 0
-293 -306 0
-293 -307 0
-293 -308 0
-293 -309 0
-293 -310 0
-293 -411 0
-293 -412 0
-293 -413 0
-293 -414 0
-293 -415 0
-293 -416 0
-293 -418 0
-293 -419 0
-293 -420 0
-294 -302 0
-294 -303 0
-294 -304 0
-294 -305 0
-294 -306 0
-294 -307 0
-294 -308 0
-294 -309 0
-294 -310 0
-294 -411 0
-294 -412 0
-294 -413 0
-294 -414 0
-294 -415 0
-294 -416 0
-294 -417 0
-294 -419 0
-294 -420 0
-295 -301 0
-295 -302 0
-295 -303 0
-295 -304 0
-295 -305 0
-295 -307 0
-295 -308 0
-295 -310 0
-295 -411 0
-295 -412 0
-295 -414 0
-295 -415 0
-295 -416 0
-295 -417 0
-295 -418 0
-295 -420 0
-296 -301 0
-296 -302 0
-296 -303 0
-296 -304 0
-296 -305 0
-296 -306 0
-296 -308 0
-296 -309 0
-296 -310 0
-296 -411 0
-296 -412 0
-296 -413 0
-296 -415 0
-296 -416 0
-296 -417 0
-296 -418 0
-296 -419 0
-297 -301 0
-297 -302 0
-297 -303 0
-297 -304 0
-297 -305 0
-297 -306 0
-297 -307 0
-297 -309 0
-297 -310 0
-297 -412 0
-297 -413 0
-297 -414 0
-297 -415 0
-297 -416 0
-297 -417 0
-297 -418 0
-297 -419 0
-297 -420 0
-298 -301 0
-298 -303 0
-298 -304 0
-298 -306 0
-298 -307 0
-298 -308 0
-298 -309 0
-298 -310 0
-298 -411 0
-298 -413 0
-298 -414 0
-298 -416 0
-298 -417 0
-298 -418 0
-298 -419 0
-298 -420 0
-299 -301 0
-299 -302 0
-299 -303 0
-299 -304 0
-299 -305 0
-299 -306 0
-299 -307 0
-299 -308 0
-299 -309 0
-299 -411 0
-299 -412 0
-299 -413 0
-299 -415 0
-299 -416 0
-299 -417 0
-299 -418 0
-299 -419 0
-300 -302 0
-300 -303 0
-300 -304 0
-300 -305 0
-300 -306 0
-300 -307 0
-300 -308 0
-300 -309 0
-300 -310 0
-300 -412 0
-300 -413 0
-300 -414 0
-300 -415 0
-300 -416 0
-300 -417 0
-300 -418 0
-300 -419 0
-300 -420 0
-301 -311 0
-301 -313 0
-301 -314 0
-301 -316 0
-301 -317 0
-301 -318 0
-301 -319 0
-301 -320 0
-301 -421 0
-301 -423 0
-301 -424 0
-301 -426 0
-301 -427 0
-301 -428 0
-301 -429 0
-301 -430 0
-302 -311 0
-302 -312 0
-302 -314 0
-302 -315 0
-302 -316 0
-302 -317 0
-302 -318 0
-302 -319 0
-302 -320 0
-302 -421 0
-302 -422 0
-302 -423 0
-302 -424 0
-302 -425 0
-302 -427 0
-302 -428 0
-302 -429 0
-302 -430 0
-303 -311 0
-303 -312 0
-303 -313 0
-303 -315 0
-303 -316 0
-303 -317 0
-303 -318 0
-303 -319 0
-303 -320 0
-303 -421 0
-303 -422 0
-303 -423 0
-303 -424 0
-303 -425 0
-303 -426 0
-303 -428 0
-303 -429 0
-303 -430 0
-304 -312 0
-304 -313 0
-304 -314 0
-304 -315 0
-304 -316 0
-304 -317 0
-304 -318 0
-304 -319 0
-304 -320 0
-304 -421 0
-304 -422 0
-304 -423 0
-304 -424 0
-304 -425 0
-304 -426 0
-304 -427 0
-304 -429 0
-304 -430 0
-305 -311 0
-305 -312 0
-305 -313 0
-305 -314 0
-305 -315 0
-305 -317 0
-305 -318 0
-305 -320 0
-305 -421 0
-305 -422 0
-305 -424 0
-305 -425 0
-305 -426 0
-305 -427 0
-305 -428 0
-305 -430 0
-306 -311 0
-306 -312 0
-306 -313 0
-306 -314 0
-306 -315 0
-306 -316 0
-306 -318 0
-306 -319 0
-306 -320 0
-306 -421 0
-306 -422 0
-306 -423 0
-306 -425 0
-306 -426 0
-306 -427 0
-306 -428 0
-306 -429 0
-307 -311 0
-307 -312 0
-307 -313 0
-307 -314 0
-307 -315 0
-307 -316 0
-307 -317 0
-307 -319 0
-307 -320 0
-307 -422 0
-307 -423 0
-307 -424 0
-307 -425 0
-307 -426 0
-307 -427 0
-307 -428 0
-307 -429 0
-307 -430 0
-308 -311 0
-308 -313 0
-308 -314 0
-308 -316 0
-308 -317 0
-308 -318 0
-308 -319 0
-308 -320 0
-308 -421 0
-308 -423 0
-308 -424 0
-308 -426 0
-308 -427 0
-308 -428 0
-308 -429 0
-308 -430 0
-309 -311 0
-309 -312 0
-309 -313 0
-309 -314 0
-309 -315 0
-309 -316 0
-309 -317 0
-309 -318 0
-309 -319 0
-309 -421 0
-309 -422 0
-309 -423 0
-309 -425 0
-309 -426 0
-309 -427 0
-309 -428 0
-309 -429 0
-310 -312 0
-310 -313 0
-310 -314 0
-310 -315 0
-310 -316 0
-310 -317 0
-310 -318 0
-310 -319 0
-310 -320 0
-310 -422 0
-310 -423 0
-310 -424 0
-310 -425 0
-310 -426 0
-310 -427 0
-310 -428 0
-310 -429 0
-310 -430 0
-311 -321 0
-311 -323 0
-311 -324 0
-311 -326 0
-311 -327 0
-311 -328 0
-311 -329 0
-311 -330 0
-311 -431 0
-311 -433 0
-311 -434 0
-311 -436 0
-311 -437 0
-311 -438 0
-311 -439 0
-311 -440 0
-312 -321 0
-312 -322 0
-312 -324 0
-312 -325 0
-312 -326 0
-312 -327 0
-312 -328 0
-312 -329 0
-312 -330 0
-312 -431 0
-312 -432 0
-312 -433 0
-312 -434 0
-312 -435 0
-312 -437 0
-312 -438 0
-312 -439 0
-312 -440 0
-313 -321 0
-313 -322 0
-313 -323 0
-313 -325 0
-313 -326 0
-313 -327 0
-313 -328 0
-313 -329 0
-313 -330 0
-313 -431 0
-313 -432 0
-313 -433 0
-313 -434 0
-313 -435 0
-313 -436 0
-313 -438 0
-313 -439 0
-313 -440 0
-314 -322 0
-314 -323 0
-314 -324 0
-314 -325 0
-314 -326 0
-314 -327 0
-314 -328 0
-314 -329 0
-314 -330 0
-314 -431 0
-314 -432 0
-314 -433 0
-314 -434 0
-314 -435 0
-314 -436 0
-314 -437 0
-314 -439 0
-314 -440 0
-315 -321 0
-315 -322 0
-315 -323 0
-315 -324 0
-315 -325 0
-315 -327 0
-315 -328 0
-315 -330 0
-315 -431 0
-315 -432 0
-315 -434 0
-315 -435 0
-315 -436 0
-315 -437 0
-315 -438 0
-315 -440 0
-316 -321 0
-316 -322 0
-316 -323 0
-316 -324 0
-316 -325 0
-316 -326 0
-316 -328 0
-316 -329 0
-316 -330 0
-316 -431 0
-316 -432 0
-316 -433 0
-316 -435 0
-316 -436 0
-316 -437 0
-316 -438 0
-316 -439 0
-317 -321 0
-317 -322 0
-317 -323 0
-317 -324 0
-317 -325 0
-317 -326 0
-317 -327 0
-317 -329 0
-317 -330 0
-317 -432 0
-317 -433 0
-317 -434 0
-317 -435 0
-317 -436 0
-317 -437 0
-317 -438 0
-317 -439 0
-317 -440 0
-318 -321 0
-318 -323 0
-318 -324 0
-318 -326 0
-318 -327 0
-318 -328 0
-318 -329 0
-318 -330 0
-318 -431 0
-318 -433 0
-318 -434 0
-318 -436 0
-318 -437 0
-318 -438 0
-318 -439 0
-318 -440 0
-319 -321 0
-319 -322 0
-319 -323 0
-319 -324 0
-319 -325 0
-319 -326 0
-319 -327 0
-319 -328 0
-319 -329 0
-319 -431 0
-319 -432 0
-319 -433 0
-319 -435 0
-319 -436 0
-319 -437 0
-319 -438 0
-319 -439 0
-320 -322 0
-320 -323 0
-320 -324 0
-320 -325 0
-320 -326 0
-320 -327 0
-320 -328 0
-320 -329 0
-320 -330 0
-320 -432 0
-320 -433 0
-320 -434 0
-320 -435 0
-320 -436 0
-320 -437 0
-320 -438 0
-320 -439 0
-320 -440 0
-321 -331 0
-321 -333 0
-321 -334 0
-321 -336 0
-321 -337 0
-321 -338 0
-321 -339 0
-321 -340 0
-321 -441 0
-321 -443 0
-321 -444 0
-321 -446 0
-321 -447 0
-321 -448 0
-321 -449 0
-321 -450 0
-322 -331 0
-322 -332 0
-322 -334 0
-322 -335 0
-322 -336 0
-322 -337 0
-322 -338 0
-322 -339 0
-322 -340 0
-322 -441 0
-322 -442 0
-322 -443 0
-322 -444 0
-322 -445 0
-322 -447 0
-322 -448 0
-322 -449 0
-322 -450 0
-323 -331 0
-323 -332 0
-323 -333 0
-323 -335 0
-323 -336 0
-323 -337 0
-323 -338 0
-323 -339 0
-323 -340 0
-323 -441 0
-323 -442 0
-323 -443 0
-323 -444 0
-323 -445 0
-323 -446 0
-323 -448 0
-323 -449 0
-323 -450 0
-324 -332 0
-324 -333 0
-324 -334 0
-324 -335 0
-324 -336 0
-324 -337 0
-324 -338 0
-324 -339 0
-324 -340 0
-324 -441 0
-324 -442 0
-324 -443 0
-324 -444 0
-324 -445 0
-324 -446 0
-324 -447 0
-324 -449 0
-324 -450 0
-325 -331 0
-325 -332 0
-325 -333 0
-325 -334 0
-325 -335 0
-325 -337 0
-325 -338 0
-325 -340 0
-325 -441 0
-325 -442 0
-325 -444 0
-325 -445 0
-325 -446 0
-325 -447 0
-325 -448 0
-325 -450 0
-326 -331 0
-326 -332 0
-326 -333 0
-326 -334 0
-326 -335 0
-326 -336 0
-326 -338 0
-326 -339 0
-326 -340 0
-326 -441 0
-326 -442 0
-326 -443 0
-326 -445 0
-326 -446 0
-326 -447 0
-326 -448 0
-326 -449 0
-327 -331 0
-327 -332 0
-327 -333 0
-327 -334 0
-327 -335 0
-327 -336 0
-327 -337 0
-327 -339 0
-327 -340 0
-327 -442 0
-327 -443 0
-327 -444 0
-327 -445 0
-327 -446 0
-327 -447 0
-327 -448 0
-327 -449 0
-327 -450 0
-328 -331 0
-328 -333 0
-328 -334 0
-328 -336 0
-328 -337 0
-328 -338 0
-328 -339 0
-328 -340 0
-328 -441 0
-328 -443 0
-328 -444 0
-328 -446 0
-328 -447 0
-328 -448 0
-328 -449 0
-328 -450 0
-329 -331 0
-329 -332 0
-329 -333 0
-329 -334 0
-329 -335 0
-329 -336 0
-329 -337 0
-329 -338 0
-329 -339 0
-329 -441 0
-329 -442 0
-329 -443 0
-329 -445 0
-329 -446 0
-329 -447 0
-329 -448 0
-329 -449 0
-330 -332 0
-330 -333 0
-330 -334 0
-330 -335 0
-330 -336 0
-330 -337 0
-330 -338 0
-330 -339 0
-330 -340 0
-330 -442 0
-330 -443 0
-330 -444 0
-330 -445 0
-330 -446 0
-330 -447 0
-330 -448 0
-330 -449 0
-330 -450 0
-331 -341 0
-331 -343 0
-331 -344 0
-331 -346 0
-331 -347 0
-331 -348 0
-331 -349 0
-331 -350 0
-331 -451 0
-331 -453 0
-331 -454 0
-331 -456 0
-331 -457 0
-331 -458 0
-331 -459 0
-331 -460 0
-332 -341 0
-332 -342 0
-332 -344 0
-332 -345 0
-332 -346 0
-332 -347 0
-332 -348 0
-332 -349 0
-332 -350 0
-332 -451 0
-332 -452 0
-332 -453 0
-332 -454 0
-332 -455 0
-332 -457 0
-332 -458 0
-332 -459 0
-332 -460 0
-333 -341 0
-333 -342 0
-333 -343 0
-333 -345 0
-333 -346 0
-333 -347 0
-333 -348 0
-333 -349 0
-333 -350 0
-333 -451 0
-333 -452 0
-333 -453 0
-333 -454 0
-333 -455 0
-333 -456 0
-333 -458 0
-333 -459 0
-333 -460 0
-334 -342 0
-334 -343 0
-334 -344 0
-334 -345 0
-334 -346 0
-334 -347 0
-334 -348 0
-334 -349 0
-334 -350 0
-334 -451 0
-334 -452 0
-334 -453 0
-334 -454 0
-334 -455 0
-334 -456 0
-334 -457 0
-334 -459 0
-334 -460 0
-335 -341 0
-335 -342 0
-335 -343 0
-335 -344 0
-335 -345 0
-335 -347 0
-335 -348 0
-335 -350 0
-335 -451 0
-335 -452 0
-335 -454 0
-335 -455 0
-335 -456 0
-335 -457 0
-335 -458 0
-335 -460 0
-336 -341 0
-336 -342 0
-336 -343 0
-336 -344 0
-336 -345 0
-336 -346 0
-336 -348 0
-336 -349 0
-336 -350 0
-336 -451 0
-336 -452 0
-336 -453 0
-336 -455 0
-336 -456 0
-336 -457 0
-336 -458 0
-336 -459 0
-337 -341 0
-337 -342 0
-337 -343 0
-337 -344 0
-337 -345 0
-337 -346 0
-337 -347 0
-337 -349 0
-337 -350 0
-337 -452 0
-337 -453 0
-337 -454 0
-337 -455 0
-337 -456 0
-337 -457 0
-337 -458 0
-337 -459 0
-337 -460 0
-338 -341 0
-338 -343 0
-338 -344 0
-338 -346 0
-338 -347 0
-338 -348 0
-338 -349 0
-338 -350 0
-338 -451 0
-338 -453 0
-338 -454 0
-338 -456 0
-338 -457 0
-338 -458 0
-338 -459 0
-338 -460 0
-339 -341 0
-339 -342 0
-339 -343 0
-339 -344 0
-339 -345 0
-339 -346 0
-339 -347 0
-339 -348 0
-339 -349 0
-339 -451 0
-339 -452 0
-339 -453 0
-339 -455 0
-339 -456 0
-339 -457 0
-339 -458 0
-339 -459 0
-340 -342 0
-340 -343 0
-340 -344 0
-340 -345 0
-340 -346 0
-340 -347 0
-340 -348 0
-340 -349 0
-340 -350 0
-340 -452 0
-340 -453 0
-340 -454 0
-340 -455 0
-340 -456 0
-340 -457 0
-340 -458 0
-340 -459 0
-340 -460 0
-341 -351 0
-341 -353 0
-341 -354 0
-341 -356 0
-341 -357 0
-341 -358 0
-341 -359 0
-341 -360 0
-341 -461 0
-341 -463 0
-341 -464 0
-341 -466 0
-341 -467 0
-341 -468 0
-341 -469 0
-341 -470 0
-342 -351 0
-342 -352 0
-342 -354 0
-342 -355 0
-342 -356 0
-342 -357 0
-342 -358 0
-342 -359 0
-342 -360 0
-342 -461 0
-342 -462 0
-342 -463 0
-342 -464 0
-342 -465 0
-342 -467 0
-342 -468 0
-342 -469 0
-342 -470 0
-343 -351 0
-343 -352 0
-343 -353 0
-343 -355 0
-343 -356 0
-343 -357 0
-343 -358 0
-343 -359 0
-343 -360 0
-343 -461 0
-343 -462 0
-343 -463 0
-343 -464 0
-343 -465 0
-343 -466 0
-343 -468 0
-343 -469 0
-343 -470 0
-344 -352 0
-344 -353 0
-344 -354 0
-344 -355 0
-344 -356 0
-344 -357 0
-344 -358 0
-344 -359 0
-344 -360 0
-344 -461 0
-344 -462 0
-344 -463 0
-344 -464 0
-344 -465 0
-344 -466 0
-344 -467 0
-344 -469 0
-344 -470 0
-345 -351 0
-345 -352 0
-345 -353 0
-345 -354 0
-345 -355 0
-345 -357 0
-345 -358 0
-345 -360 0
-345 -461 0
-345 -462 0
-345 -464 0
-345 -465 0
-345 -466 0
-345 -467 0
-345 -468 0
-345 -470 0
-346 -351 0
-346 -352 0
-346 -353 0
-346 -354 0
-346 -355 0
-346 -356 0
-346 -358 0
-346 -359 0
-346 -360 0
-346 -461 0
-346 -462 0
-346 -463 0
-346 -465 0
-346 -466 0
-346 -467 0
-346 -468 0
-346 -469 0
-347 -351 0
-347 -352 0
-347 -353 0
-347 -354 0
-347 -355 0
-347 -356 0
-347 -357 0
-347 -359 0
-347 -360 0
-347 -462 0
-347 -463 0
-347 -464 0
-347 -465 0
-347 -466 0
-347 -467 0
-347 -468 0
-347 -469 0
-347 -470 0
-348 -351 0
-348 -353 0
-348 -354 0
-348 -356 0
-348 -357 0
-348 -358 0
-348 -359 0
-348 -360 0
-348 -461 0
-348 -463 0
-348 -464 0
-348 -466 0
-348 -467 0
-348 -468 0
-348 -469 0
-348 -470 0
-349 -351 0
-349 -352 0
-349 -353 0
-349 -354 0
-349 -355 0
-349 -356 0
-349 -357 0
-349 -358 0
-349 -359 0
-349 -461 0
-349 -462 0
-349 -463 0
-349 -465 0
-349 -466 0
-349 -467 0
-349 -468 0
-349 -469 0
-350 -352 0
-350 -353 0
-350 -354 0
-350 -355 0
-350 -356 0
-350 -357 0
-350 -358 0
-350 -359 0
-350 -360 0
-350 -462 0
-350 -463 0
-350 -464 0
-350 -465 0
-350 -466 0
-350 -467 0
-350 -468 0
-350 -469 0
-350 -470 0
-351 -471 0
-351 -473 0
-351 -474 0
-351 -476 0
-351 -477 0
-351 -478 0
-351 -479 0
-351 -480 0
-352 -471 0
-352 -472 0
-352 -473 0
-352 -474 0
-352 -475 0
-352 -477 0
-352 -478 0
-352 -479 0
-352 -480 0
-353 -471 0
-353 -472 0
-353 -473 0
-353 -474 0
-353 -475 0
-353 -476 0
-353 -478 0
-353 -479 0
-353 -480 0
-354 -471 0
-354 -472 0
-354 -473 0
-354 -474 0
-354 -475 0
-354 -476 0
-354 -477 0
-354 -479 0
-354 -480 0
-355 -471 0
-355 -472 0
-355 -474 0
-355 -475 0
-355 -476 0
-355 -477 0
-355 -478 0
-355 -480 0
-356 -471 0
-356 -472 0
-356 -473 0
-356 -475 0
-356 -476 0
-356 -477 0
-356 -478 0
-356 -479 0
-357 -472 0
-357 -473 0
-357 -474 0
-357 -475 0
-357 -476 0
-357 -477 0
-357 -478 0
-357 -479 0
-357 -480 0
-358 -471 0
-358 -473 0
-358 -474 0
-358 -476 0
-358 -477 0
-358 -478 0
-358 -479 0
-358 -480 0
-359 -471 0
-359 -472 0
-359 -473 0
-359 -475 0
-359 -476 0
-359 -477 0
-359 -478 0
-359 -479 0
-360 -472 0
-360 -473 0
-360 -474 0
-360 -475 0
-360 -476 0
-360 -477 0
-360 -478 0
-360 -479 0
-360 -480 0
-361 -371 0
-361 -373 0
-361 -374 0
-361 -376 0
-361 -377 0
-361 -378 0
-361 -379 0
-361 -380 0
-361 -481 0
-361 -483 0
-361 -484 0
-361 -486 0
-361 -487 0
-361 -488 0
-361 -489 0
-361 -490 0
-362 -371 0
-362 -372 0
-362 -374 0
-362 -375 0
-362 -376 0
-362 -377 0
-362 -378 0
-362 -379 0
-362 -380 0
-362 -481 0
-362 -482 0
-362 -483 0
-362 -484 0
-362 -485 0
-362 -487 0
-362 -488 0
-362 -489 0
-362 -490 0
-363 -371 0
-363 -372 0
-363 -373 0
-363 -375 0
-363 -376 0
-363 -377 0
-363 -378 0
-363 -379 0
-363 -380 0
-363 -481 0
-363 -482 0
-363 -483 0
-363 -484 0
-363 -485 0
-363 -486 0
-363 -488 0
-363 -489 0
-363 -490 0
-364 -372 0
-364 -373 0
-364 -374 0
-364 -375 0
-364 -376 0
-364 -377 0
-364 -378 0
-364 -379 0
-364 -380 0
-364 -481 0
-364 -482 0
-364 -483 0
-364 -484 0
-364 -485 0
-364 -486 0
-364 -487 0
-364 -489 0
-364 -490 0
-365 -371 0
-365 -372 0
-365 -373 0
-365 -374 0
-365 -375 0
-365 -377 0
-365 -378 0
-365 -380 0
-365 -481 0
-365 -482 0
-365 -484 0
-365 -485 0
-365 -486 0
-365 -487 0
-365 -488 0
-365 -490 0
-366 -371 0
-366 -372 0
-366 -373 0
-366 -374 0
-366 -375 0
-366 -376 0
-366 -378 0
-366 -379 0
-366 -380 0
-366 -481 0
-366 -482 0
-366 -483 0
-366 -485 0
-366 -486 0
-366 -487 0
-366 -488 0
-366 -489 0
-367 -371 0
-367 -372 0
-367 -373 0
-367 -374 0
-367 -375 0
-367 -376 0
-367 -377 0
-367 -379 0
-367 -380 0
-367 -482 0
-367 -483 0
-367 -484 0
-367 -485 0
-367 -486 0
-367 -487 0
-367 -488 0
-367 -489 0
-367 -490 0
-368 -371 0
-368 -373 0
-368 -374 0
-368 -376 0
-368 -377 0
-368 -378 0
-368 -379 0
-368 -380 0
-368 -481 0
-368 -483 0
-368 -484 0
-368 -486 0
-368 -487 0
-368 -488 0
-368 -489 0
-368 -490 0
-369 -371 0
-369 -372 0
-369 -373 0
-369 -374 0
-369 -375 0
-369 -376 0
-369 -377 0
-369 -378 0
-369 -379 0
-369 -481 0
-369 -482 0
-369 -483 0
-369 -485 0
-369 -486 0
-369 -487 0
-369 -488 0
-369 -489 0
-370 -372 0
-370 -373 0
-370 -374 0
-370 -375 0
-370 -376 0
-370 -377 0
-370 -378 0
-370 -379 0
-370 -380 0
-370 -482 0
-370 -483 0
-370 -484 0
-370 -485 0
-370 -486 0
-370 -487 0
-370 -488 0
-370 -489 0
-370 -490 0
-371 -381 0
-371 -383 0
-371 -384 0
-371 -386 0
-371 -387 0
-371 -388 0
-371 -389 0
-371 -390 0
-371 -491 0
-371 -493 0
-371 -494 0
-371 -496 0
-371 -497 0
-371 -498 0
-371 -499 0
-371 -500 0
-372 -381 0
-372 -382 0
-372 -384 0
-372 -385 0
-372 -386 0
-372 -387 0
-372 -388 0
-372 -389 0
-372 -390 0
-372 -491 0
-372 -492 0
-372 -493 0
-372 -494 0
-372 -495 0
-372 -497 0
-372 -498 0
-372 -499 0
-372 -500 0
-373 -381 0
-373 -382 0
-373 -383 0
-373 -385 0
-373 -386 0
-373 -387 0
-373 -388 0
-373 -389 0
-373 -390 0
-373 -491 0
-373 -492 0
-373 -493 0
-373 -494 0
-373 -495 0
-373 -496 0
-373 -498 0
-373 -499 0
-373 -500 0
-374 -382 0
-374 -383 0
-374 -384 0
-374 -385 0
-374 -386 0
-374 -387 0
-374 -388 0
-374 -389 0
-374 -390 0
-374 -491 0
-374 -492 0
-374 -493 0
-374 -494 0
-374 -495 0
-374 -496 0
-374 -497 0
-374 -499 0
-374 -500 0
-375 -381 0
-375 -382 0
-375 -383 0
-375 -384 0
-375 -385 0
-375 -387 0
-375 -388 0
-375 -390 0
-375 -491 0
-375 -492 0
-375 -494 0
-375 -495 0
-375 -496 0
-375 -497 0
-375 -498 0
-375 -500 0
-376 -381 0
-376 -382 0
-376 -383 0
-376 -384 0
-376 -385 0
-376 -386 0
-376 -388 0
-376 -389 0
-376 -390 0
-376 -491 0
-376 -492 0
-376 -493 0
-376 -495 0
-376 -496 0
-376 -497 0
-376 -498 0
-376 -499 0
-377 -381 0
-377 -382 0
-377 -383 0
-377 -384 0
-377 -385 0
-377 -386 0
-377 -387 0
-377 -389 0
-377 -390 0
-377 -492 0
-377 -493 0
-377 -494 0
-377 -495 0
-377 -496 0
-377 -497 0
-377 -498 0
-377 -499 0
-377 -500 0
-378 -381 0
-378 -383 0
-378 -384 0
-378 -386 0
-378 -387 0
-378 -388 0
-378 -389 0
-378 -390 0
-378 -491 0
-378 -493 0
-378 -494 0
-378 -496 0
-378 -497 0
-378 -498 0
-378 -499 0
-378 -500 0
-379 -381 0
-379 -382 0
-379 -383 0
-379 -384 0
-379 -385 0
-379 -386 0
-379 -387 0
-379 -388 0
-379 -389 0
-379 -491 0
-379 -492 0
-379 -493 0
-379 -495 0
-379 -496 0
-379 -497 0
-379 -498 0
-379 -499 0
-380 -382 0
-380 -383 0
-380 -384 0
-380 -385 0
-380 -386 0
-380 -387 0
-380 -388 0
-380 -389 0
-380 -390 0
-380 -492 0
-380 -493 0
-380 -494 0
-380 -495 0
-380 -496 0
-380 -497 0
-380 -498 0
-380 -499 0
-380 -500 0
-381 -391 0
-381 -393 0
-381 -394 0
-381 -396 0
-381 -397 0
-381 -398 0
-381 -399 0
-381 -400 0
-381 -501 0
-381 -503 0
-381 -504 0
-381 -506 0
-381 -507 0
-381 -508 0
-381 -509 0
-381 -510 0
-382 -391 0
-382 -392 0
-382 -394 0
-382 -395 0
-382 -396 0
-382 -397 0
-382 -398 0
-382 -399 0
-382 -400 0
-382 -501 0
-382 -502 0
-382 -503 0
-382 -504 0
-382 -505 0
-382 -507 0
-382 -508 0
-382 -509 0
-382 -510 0
-383 -391 0
-383 -392 0
-383 -393 0
-383 -395 0
-383 -396 0
-383 -397 0
-383 -398 0
-383 -399 0
-383 -400 0
-383 -501 0
-383 -502 0
-383 -503 0
-383 -504 0
-383 -505 0
-383 -506 0
-383 -508 0
-383 -509 0
-383 -510 0
-384 -392 0
-384 -393 0
-384 -394 0
-384 -395 0
-384 -396 0
-384 -397 0
-384 -398 0
-384 -399 0
-384 -400 0
-384 -501 0
-384 -502 0
-384 -503 0
-384 -504 0
-384 -505 0
-384 -506 0
-384 -507 0
-384 -509 0
-384 -510 0
-385 -391 0
-385 -392 0
-385 -393 0
-385 -394 0
-385 -395 0
-385 -397 0
-385 -398 0
-385 -400 0
-385 -501 0
-385 -502 0
-385 -504 0
-385 -505 0
-385 -506 0
-385 -507 0
-385 -508 0
-385 -510 0
-386 -391 0
-386 -392 0
-386 -393 0
-386 -394 0
-386 -395 0
-386 -396 0
-386 -398 0
-386 -399 0
-386 -400 0
-386 -501 0
-386 -502 0
-386 -503 0
-386 -505 0
-386 -506 0
-386 -507 0
-386 -508 0
-386 -509 0
-387 -391 0
-387 -392 0
-387 -393 0
-387 -394 0
-387 -395 0
-387 -396 0
-387 -397 0
-387 -399 0
-387 -400 0
-387 -502 0
-387 -503 0
-387 -504 0
-387 -505 0
-387 -506 0
-387 -507 0
-387 -508 0
-387 -509 0
-387 -510 0
-388 -391 0
-388 -393 0
-388 -394 0
-388 -396 0
-388 -397 0
-388 -398 0
-388 -399 0
-388 -400 0
-388 -501 0
-388 -503 0
-388 -504 0
-388 -506 0
-388 -507 0
-388 -508 0
-388 -509 0
-388 -510 0
-389 -391 0
-389 -392 0
-389 -393 0
-389 -394 0
-389 -395 0
-389 -396 0
-389 -397 0
-389 -398 0
-389 -399 0
-389 -501 0
-389 -502 0
-389 -503 0
-389 -505 0
-389 -506 0
-389 -507 0
-389 -508 0
-389 -509 0
-390 -392 0
-390 -393 0
-390 -394 0
-390 -395 0
-390 -396 0
-390 -397 0
-390 -398 0
-390 -399 0
-390 -400 0
-390 -502 0
-390 -503 0
-390 -504 0
-390 -505 0
-390 -506 0
-390 -507 0
-390 -508 0
-390 -509 0
-390 -510 0
-391 -401 0
-391 -403 0
-391 -404 0
-391 -406 0
-391 -407 0
-391 -408 0
-391 -409 0
-391 -410 0
-391 -511 0
-391 -513 0
-391 -514 0
-391 -516 0
-391 -517 0
-391 -518 0
-391 -519 0
-391 -520 0
-392 -401 0
-392 -402 0
-392 -404 0
-392 -405 0
-392 -406 0
-392 -407 0
-392 -408 0
-392 -409 0
-392 -410 0
-392 -511 0
-392 -512 0
-392 -513 0
-392 -514 0
-392 -515 0
-392 -517 0
-392 -518 0
-392 -519 0
-392 -520 0
-393 -401 0
-393 -402 0
-393 -403 0
-393 -405 0
-393 -406 0
-393 -407 0
-393 -408 0
-393 -409 0
-393 -410 0
-393 -511 0
-393 -512 0
-393 -513 0
-393 -514 0
-393 -515 0
-393 -516 0
-393 -518 0
-393 -519 0
-393 -520 0
-394 -402 0
-394 -403 0
-394 -404 0
-394 -405 0
-394 -406 0
-394 -407 0
-394 -408 0
-394 -409 0
-394 -410 0
-394 -511 0
-394 -512 0
-394 -513 0
-394 -514 0
-394 -515 0
-394 -516 0
-394 -517 0
-394 -519 0
-394 -520 0
-395 -401 0
-395 -402 0
-395 -403 0
-395 -404 0
-395 -405 0
-395 -407 0
-395 -408 0
-395 -410 0
-395 -511 0
-395 -512 0
-395 -514 0
-395 -515 0
-395 -516 0
-395 -517 0
-395 -518 0
-395 -520 0
-396 -401 0
-396 -402 0
-396 -403 0
-396 -404 0
-396 -405 0
-396 -406 0
-396 -408 0
-396 -409 0
-396 -410 0
-396 -511 0
-396 -512 0
-396 -513 0
-396 -515 0
-396 -516 0
-396 -517 0
-396 -518 0
-396 -519 0
-397 -401 0
-397 -402 0
-397 -403 0
-397 -404 0
-397 -405 0
-397 -406 0
-397 -407 0
-397 -409 0
-397 -410 0
-397 -512 0
-397 -513 0
-397 -514 0
-397 -515 0
-397 -516 0
-397 -517 0
-397 -518 0
-397 -519 0
-397 -520 0
-398 -401 0
-398 -403 0
-398 -404 0
-398 -406 0
-398 -407 0
-398 -408 0
-398 -409 0
-398 -410 0
-398 -511 0
-398 -513 0
-398 -514 0
-398 -516 0
-398 -517 0
-398 -518 0
-398 -519 0
-398 -520 0
-399 -401 0
-399 -402 0
-399 -403 0
-399 -404 0
-399 -405 0
-399 -406 0
-399 -407 0
-399 -408 0
-399 -409 0
-399 -511 0
-399 -512 0
-399 -513 0
-399 -515 0
-399 -516 0
-399 -517 0
-399 -518 0
-399 -519 0
-400 -402 0
-400 -403 0
-400 -404 0
-400 -405 0
-400 -406 0
-400 -407 0
-400 -408 0
-400 -409 0
-400 -410 0
-400 -512 0
-400 -513 0
-400 -514 0
-400 -515 0
-400 -516 0
-400 -517 0
-400 -518 0
-400 -519 0
-400 -520 0
-401 -411 0
-401 -413 0
-401 -414 0
-401 -416 0
-401 -417 0
-401 -418 0
-401 -419 0
-401 -420 0
-401 -521 0
-401 -523 0
-401 -524 0
-401 -526 0
-401 -527 0
-401 -528 0
-401 -529 0
-401 -530 0
-402 -411 0
-402 -412 0
-402 -414 0
-402 -415 0
-402 -416 0
-402 -417 0
-402 -418 0
-402 -419 0
-402 -420 0
-402 -521 0
-402 -522 0
-402 -523 0
-402 -524 0
-402 -525 0
-402 -527 0
-402 -528 0
-402 -529 0
-402 -530 0
-403 -411 0
-403 -412 0
-403 -413 0
-403 -415 0
-403 -416 0
-403 -417 0
-403 -418 0
-403 -419 0
-403 -420 0
-403 -521 0
-403 -522 0
-403 -523 0
-403 -524 0
-403 -525 0
-403 -526 0
-403 -528 0
-403 -529 0
-403 -530 0
-404 -412 0
-404 -413 0
-404 -414 0
-404 -415 0
-404 -416 0
-404 -417 0
-404 -418 0
-404 -419 0
-404 -420 0
-404 -521 0
-404 -522 0
-404 -523 0
-404 -524 0
-404 -525 0
-404 -526 0
-404 -527 0
-404 -529 0
-404 -530 0
-405 -411 0
-405 -412 0
-405 -413 0
-405 -414 0
-405 -415 0
-405 -417 0
-405 -418 0
-405 -420 0
-405 -521 0
-405 -522 0
-405 -524 0
-405 -525 0
-405 -526 0
-405 -527 0
-405 -528 0
-405 -530 0
-406 -411 0
-406 -412 0
-406 -413 0
-406 -414 0
-406 -415 0
-406 -416 0
-406 -418 0
-406 -419 0
-406 -420 0
-406 -521 0
-406 -522 0
-406 -523 0
-406 -525 0
-406 -526 0
-406 -527 0
-406 -528 0
-406 -529 0
-407 -411 0
-407 -412 0
-407 -413 0
-407 -414 0
-407 -415 0
-407 -416 0
-407 -417 0
-407 -419 0
-407 -420 0
-407 -522 0
-407 -523 0
-407 -524 0
-407 -525 0
-407 -526 0
-407 -527 0
-407 -528 0
-407 -529 0
-407 -530 0
-408 -411 0
-408 -413 0
-408 -414 0
-408 -416 0
-408 -417 0
-408 -418 0
-408 -419 0
-408 -420 0
-408 -521 0
-408 -523 0
-408 -524 0
-408 -526 0
-408 -527 0
-408 -528 0
-408 -529 0
-408 -530 0
-409 -411 0
-409 -412 0
-409 -413 0
-409 -414 0
-409 -415 0
-409 -416 0
-409 -417 0
-409 -418 0
-409 -419 0
-409 -521 0
-409 -522 0
-409 -523 0
-409 -525 0
-409 -526 0
-409 -527 0
-409 -528 0
-409 -529 0
-410 -412 0
-410 -413 0
-410 -414 0
-410 -415 0
-410 -416 0
-410 -417 0
-410 -418 0
-410 -419 0
-410 -420 0
-410 -522 0
-410 -523 0
-410 -524 0
-410 -525 0
-410 -526 0
-410 -527 0
-410 -528 0
-410 -529 0
-410 -530 0
-411 -421 0
-411 -423 0
-411 -424 0
-411 -426 0
-411 -427 0
-411 -428 0
-411 -429 0
-411 -430 0
-411 -531 0
-411 -533 0
-411 -534 0
-411 -536 0
-411 -537 0
-411 -538 0
-411 -539 0
-411 -540 0
-412 -421 0
-412 -422 0
-412 -424 0
-412 -425 0
-412 -426 0
-412 -427 0
-412 -428 0
-412 -429 0
-412 -430 0
-412 -531 0
-412 -532 0
-412 -533 0
-412 -534 0
-412 -535 0
-412 -537 0
-412 -538 0
-412 -539 0
-412 -540 0
-413 -421 0
-413 -422 0
-413 -423 0
-413 -425 0
-413 -426 0
-413 -427 0
-413 -428 0
-413 -429 0
-413 -430 0
-413 -531 0
-413 -532 0
-413 -533 0
-413 -534 0
-413 -535 0
-413 -536 0
-413 -538 0
-413 -539 0
-413 -540 0
-414 -422 0
-414 -423 0
-414 -424 0
-414 -425 0
-414 -426 0
-414 -427 0
-414 -428 0
-414 -429 0
-414 -430 0
-414 -531 0
-414 -532 0
-414 -533 0
-414 -534 0
-414 -535 0
-414 -536 0
-414 -537 0
-414 -539 0
-414 -540 0
-415 -421 0
-415 -422 0
-415 -423 0
-415 -424 0
-415 -425 0
-415 -427 0
-415 -428 0
-415 -430 0
-415 -531 0
-415 -532 0
-415 -534 0
-415 -535 0
-415 -536 0
-415 -537 0
-415 -538 0
-415 -540 0
-416 -421 0
-416 -422 0
-416 -423 0
-416 -424 0
-416 -425 0
-416 -426 0
-416 -428 0
-416 -429 0
-416 -430 0
-416 -531 0
-416 -532 0
-416 -533 0
-416 -535 0
-416 -536 0
-416 -537 0
-416 -538 0
-416 -539 0
-417 -421 0
-417 -422 0
-417 -423 0
-417 -424 0
-417 -425 0
-417 -426 0
-417 -427 0
-417 -429 0
-417 -430 0
-417 -532 0
-417 -533 0
-417 -534 0
-417 -535 0
-417 -536 0
-417 -537 0
-417 -538 0
-417 -539 0
-417 -540 0
-418 -421 0
-418 -423 0
-418 -424 0
-418 -426 0
-418 -427 0
-418 -428 0
-418 -429 0
-418 -430 0
-418 -531 0
-418 -533 0
-418 -534 0
-418 -536 0
-418 -537 0
-418 -538 0
-418 -539 0
-418 -540 0
-419 -421 0
-419 -422 0
-419 -423 0
-419 -424 0
-419 -425 0
-419 -426 0
-419 -427 0
-419 -428 0
-419 -429 0
-419 -531 0
-419 -532 0
-419 -533 0
-419 -535 0
-419 -536 0
-419 -537 0
-419 -538 0
-419 -539 0
-420 -422 0
-420 -423 0
-420 -424 0
-420 -425 0
-420 -426 0
-420 -427 0
-420 -428 0
-420 -429 0
-420 -430 0
-420 -532 0
-420 -533 0
-420 -534 0
-420 -535 0
-420 -536 0
-420 -537 0
-420 -538 0
-420 -539 0
-420 -540 0
-421 -431 0
-421 -433 0
-421 -434 0
-421 -436 0
-421 -437 0
-421 -438 0
-421 -439 0
-421 -440 0
-421 -541 0
-421 -543 0
-421 -544 0
-421 -546 0
-421 -547 0
-421 -548 0
-421 -549 0
-421 -550 0
-422 -431 0
-422 -432 0
-422 -434 0
-422 -435 0
-422 -436 0
-422 -437 0
-422 -438 0
-422 -439 0
-422 -440 0
-422 -541 0
-422 -542 0
-422 -543 0
-422 -544 0
-422 -545 0
-422 -547 0
-422 -548 0
-422 -549 0
-422 -550 0
-423 -431 0
-423 -432 0
-423 -433 0
-423 -435 0
-423 -436 0
-423 -437 0
-423 -438 0
-423 -439 0
-423 -440 0
-423 -541 0
-423 -542 0
-423 -543 0
-423 -544 0
-423 -545 0
-423 -546 0
-423 -548 0
-423 -549 0
-423 -550 0
-424 -432 0
-424 -433 0
-424 -434 0
-424 -435 0
-424 -436 0
-424 -437 0
-424 -438 0
-424 -439 0
-424 -440 0
-424 -541 0
-424 -542 0
-424 -543 0
-424 -544 0
-424 -545 0
-424 -546 0
-424 -547 0
-424 -549 0
-424 -550 0
-425 -431 0
-425 -432 0
-425 -433 0
-425 -434 0
-425 -435 0
-425 -437 0
-425 -438 0
-425 -440 0
-425 -541 0
-425 -542 0
-425 -544 0
-425 -545 0
-425 -546 0
-425 -547 0
-425 -548 0
-425 -550 0
-426 -431 0
-426 -432 0
-426 -433 0
-426 -434 0
-426 -435 0
-426 -436 0
-426 -438 0
-426 -439 0
-426 -440 0
-426 -541 0
-426 -542 0
-426 -543 0
-426 -545 0
-426 -546 0
-426 -547 0
-426 -548 0
-426 -549 0
-427 -431 0
-427 -432 0
-427 -433 0
-427 -434 0
-427 -435 0
-427 -436 0
-427 -437 0
-427 -439 0
-427 -440 0
-427 -542 0
-427 -543 0
-427 -544 0
-427 -545 0
-427 -546 0
-427 -547 0
-427 -548 0
-427 -549 0
-427 -550 0
-428 -431 0
-428 -433 0
-428 -434 0
-428 -436 0
-428 -437 0
-428 -438 0
-428 -439 0
-428 -440 0
-428 -541 0
-428 -543 0
-428 -544 0
-428 -546 0
-428 -547 0
-428 -548 0
-428 -549 0
-428 -550 0
-429 -431 0
-429 -432 0
-429 -433 0
-429 -434 0
-429 -435 0
-429 -436 0
-429 -437 0
-429 -438 0
-429 -439 0
-429 -541 0
-429 -542 0
-429 -543 0
-429 -545 0
-429 -546 0
-429 -547 0
-429 -548 0
-429 -549 0
-430 -432 0
-430 -433 0
-430 -434 0
-430 -435 0
-430 -436 0
-430 -437 0
-430 -438 0
-430 -439 0
-430 -440 0
-430 -542 0
-430 -543 0
-430 -544 0
-430 -545 0
-430 -546 0
-430 -547 0
-430 -548 0
-430 -549 0
-430 -550 0
-431 -441 0
-431 -443 0
-431 -444 0
-431 -446 0
-431 -447 0
-431 -448 0
-431 -449 0
-431 -450 0
-431 -551 0
-431 -553 0
-431 -554 0
-431 -556 0
-431 -557 0
-431 -558 0
-431 -559 0
-431 -560 0
-432 -441 0
-432 -442 0
-432 -444 0
-432 -445 0
-432 -446 0
-432 -447 0
-432 -448 0
-432 -449 0
-432 -450 0
-432 -551 0
-432 -552 0
-432 -553 0
-432 -554 0
-432 -555 0
-432 -557 0
-432 -558 0
-432 -559 0
-432 -560 0
-433 -441 0
-433 -442 0
-433 -443 0
-433 -445 0
-433 -446 0
-433 -447 0
-433 -448 0
-433 -449 0
-433 -450 0
-433 -551 0
-433 -552 0
-433 -553 0
-433 -554 0
-433 -555 0
-433 -556 0
-433 -558 0
-433 -559 0
-433 -560 0
-434 -442 0
-434 -443 0
-434 -444 0
-434 -445 0
-434 -446 0
-434 -447 0
-434 -448 0
-434 -449 0
-434 -450 0
-434 -551 0
-434 -552 0
-434 -553 0
-434 -554 0
-434 -555 0
-434 -556 0
-434 -557 0
-434 -559 0
-434 -560 0
-435 -441 0
-435 -442 0
-435 -443 0
-435 -444 0
-435 -445 0
-435 -447 0
-435 -448 0
-435 -450 0
-435 -551 0
-435 -552 0
-435 -554 0
-435 -555 0
-435 -556 0
-435 -557 0
-435 -558 0
-435 -560 0
-436 -441 0
-436 -442 0
-436 -443 0
-436 -444 0
-436 -445 0
-436 -446 0
-436 -448 0
-436 -449 0
-436 -450 0
-436 -551 0
-436 -552 0
-436 -553 0
-436 -555 0
-436 -556 0
-436 -557 0
-436 -558 0
-436 -559 0
-437 -441 0
-437 -442 0
-437 -443 0
-437 -444 0
-437 -445 0
-437 -446 0
-437 -447 0
-437 -449 0
-437 -450 0
-437 -552 0
-437 -553 0
-437 -554 0
-437 -555 0
-437 -556 0
-437 -557 0
-437 -558 0
-437 -559 0
-437 -560 0
-438 -441 0
-438 -443 0
-438 -444 0
-438 -446 0
-438 -447 0
-438 -448 0
-438 -449 0
-438 -450 0
-438 -551 0
-438 -553 0
-438 -554 0
-438 -556 0
-438 -557 0
-438 -558 0
-438 -559 0
-438 -560 0
-439 -441 0
-439 -442 0
-439 -443 0
-439 -444 0
-439 -445 0
-439 -446 0
-439 -447 0
-439 -448 0
-439 -449 0
-439 -551 0
-439 -552 0
-439 -553 0
-439 -555 0
-439 -556 0
-439 -557 0
-439 -558 0
-439 -559 0
-440 -442 0
-440 -443 0
-440 -444 0
-440 -445 0
-440 -446 0
-440 -447 0
-440 -448 0
-440 -449 0
-440 -450 0
-440 -552 0
-440 -553 0
-440 -554 0
-440 -555 0
-440 -556 0
-440 -557 0
-440 -558 0
-440 -559 0
-440 -560 0
-441 -451 0
-441 -453 0
-441 -454 0
-441 -456 0
-441 -457 0
-441 -458 0
-441 -459 0
-441 -460 0
-441 -561 0
-441 -563 0
-441 -564 0
-441 -566 0
-441 -567 0
-441 -568 0
-441 -569 0
-441 -570 0
-442 -451 0
-442 -452 0
-442 -454 0
-442 -455 0
-442 -456 0
-442 -457 0
-442 -458 0
-442 -459 0
-442 -460 0
-442 -561 0
-442 -562 0
-442 -563 0
-442 -564 0
-442 -565 0
-442 -567 0
-442 -568 0
-442 -569 0
-442 -570 0
-443 -451 0
-443 -452 0
-443 -453 0
-443 -455 0
-443 -456 0
-443 -457 0
-443 -458 0
-443 -459 0
-443 -460 0
-443 -561 0
-443 -562 0
-443 -563 0
-443 -564 0
-443 -565 0
-443 -566 0
-443 -568 0
-443 -569 0
-443 -570 0
-444 -452 0
-444 -453 0
-444 -454 0
-444 -455 0
-444 -456 0
-444 -457 0
-444 -458 0
-444 -459 0
-444 -460 0
-444 -561 0
-444 -562 0
-444 -563 0
-444 -564 0
-444 -565 0
-444 -566 0
-444 -567 0
-444 -569 0
-444 -570 0
-445 -451 0
-445 -452 0
-445 -453 0
-445 -454 0
-445 -455 0
-445 -457 0
-445 -458 0
-445 -460 0
-445 -561 0
-445 -562 0
-445 -564 0
-445 -565 0
-445 -566 0
-445 -567 0
-445 -568 0
-445 -570 0
-446 -451 0
-446 -452 0
-446 -453 0
-446 -454 0
-446 -455 0
-446 -456 0
-446 -458 0
-446 -459 0
-446 -460 0
-446 -561 0
-446 -562 0
-446 -563 0
-446 -565 0
-446 -566 0
-446 -567 0
-446 -568 0
-446 -569 0
-447 -451 0
-447 -452 0
-447 -453 0
-447 -454 0
-447 -455 0
-447 -456 0
-447 -457 0
-447 -459 0
-447 -460 0
-447 -562 0
-447 -563 0
-447 -564 0
-447 -565 0
-447 -566 0
-447 -567 0
-447 -568 0
-447 -569 0
-447 -570 0
-448 -451 0
-448 -453 0
-448 -454 0
-448 -456 0
-448 -457 0
-448 -458 0
-448 -459 0
-448 -460 0
-448 -561 0
-448 -563 0
-448 -564 0
-448 -566 0
-448 -567 0
-448 -568 0
-448 -569 0
-448 -570 0
-449 -451 0
-449 -452 0
-449 -453 0
-449 -454 0
-449 -455 0
-449 -456 0
-449 -457 0
-449 -458 0
-449 -459 0
-449 -561 0
-449 -562 0
-449 -563 0
-449 -565 0
-449 -566 0
-449 -567 0
-449 -568 0
-449 -569 0
-450 -452 0
-450 -453 0
-450 -454 0
-450 -455 0
-450 -456 0
-450 -457 0
-450 -458 0
-450 -459 0
-450 -460 0
-450 -562 0
-450 -563 0
-450 -564 0
-450 -565 0
-450 -566 0
-450 -567 0
-450 -568 0
-450 -569 0
-450 -570 0
-451 -461 0
-451 -463 0
-451 -464 0
-451 -466 0
-451 -467 0
-451 -468 0
-451 -469 0
-451 -470 0
-451 -571 0
-451 -573 0
-451 -574 0
-451 -576 0
-451 -577 0
-451 -578 0
-451 -579 0
-451 -580 0
-452 -461 0
-452 -462 0
-452 -464 0
-452 -465 0
-452 -466 0
-452 -467 0
-452 -468 0
-452 -469 0
-452 -470 0
-452 -571 0
-452 -572 0
-452 -573 0
-452 -574 0
-452 -575 0
-452 -577 0
-452 -578 0
-452 -579 0
-452 -580 0
-453 -461 0
-453 -462 0
-453 -463 0
-453 -465 0
-453 -466 0
-453 -467 0
-453 -468 0
-453 -469 0
-453 -470 0
-453 -571 0
-453 -572 0
-453 -573 0
-453 -574 0
-453 -575 0
-453 -576 0
-453 -578 0
-453 -579 0
-453 -580 0
-454 -462 0
-454 -463 0
-454 -464 0
-454 -465 0
-454 -466 0
-454 -467 0
-454 -468 0
-454 -469 0
-454 -470 0
-454 -571 0
-454 -572 0
-454 -573 0
-454 -574 0
-454 -575 0
-454 -576 0
-454 -577 0
-454 -579 0
-454 -580 0
-455 -461 0
-455 -462 0
-455 -463 0
-455 -464 0
-455 -465 0
-455 -467 0
-455 -468 0
-455 -470 0
-455 -571 0
-455 -572 0
-455 -574 0
-455 -575 0
-455 -576 0
-455 -577 0
-455 -578 0
-455 -580 0
-456 -461 0
-456 -462 0
-456 -463 0
-456 -464 0
-456 -465 0
-456 -466 0
-456 -468 0
-456 -469 0
-456 -470 0
-456 -571 0
-456 -572 0
-456 -573 0
-456 -575 0
-456 -576 0
-456 -577 0
-456 -578 0
-456 -579 0
-457 -461 0
-457 -462 0
-457 -463 0
-457 -464 0
-457 -465 0
-457 -466 0
-457 -467 0
-457 -469 0
-457 -470 0
-457 -572 0
-457 -573 0
-457 -574 0
-457 -575 0
-457 -576 0
-457 -577 0
-457 -578 0
-457 -579 0
-457 -580 0
-458 -461 0
-458 -463 0
-458 -464 0
-458 -466 0
-458 -467 0
-458 -468 0
-458 -469 0
-458 -470 0
-458 -571 0
-458 -573 0
-458 -574 0
-458 -576 0
-458 -577 0
-458 -578 0
-458 -579 0
-458 -580 0
-459 -461 0
-459 -462 0
-459 -463 0
-459 -464 0
-459 -465 0
-459 -466 0
-459 -467 0
-459 -468 0
-459 -469 0
-459 -571 0
-459 -572 0
-459 -573 0
-459 -575 0
-459 -576 0
-459 -577 0
-459 -578 0
-459 -579 0
-460 -462 0
-460 -463 0
-460 -464 0
-460 -465 0
-460 -466 0
-460 -467 0
-460 -468 0
-460 -469 0
-460 -470 0
-460 -572 0
-460 -573 0
-460 -574 0
-460 -575 0
-460 -576 0
-460 -577 0
-460 -578 0
-460 -579 0
-460 -580 0
-461 -471 0
-461 -473 0
-461 -474 0
-461 -476 0
-461 -477 0
-461 -478 0
-461 -479 0
-461 -480 0
-461 -581 0
-461 -583 0
-461 -584 0
-461 -586 0
-461 -587 0
-461 -588 0
-461 -589 0
-461 -590 0
-462 -471 0
-462 -472 0
-462 -474 0
-462 -475 0
-462 -476 0
-462 -477 0
-462 -478 0
-462 -479 0
-462 -480 0
-462 -581 0
-462 -582 0
-462 -583 0
-462 -584 0
-462 -585 0
-462 -587 0
-462 -588 0
-462 -589 0
-462 -590 0
-463 -471 0
-463 -472 0
-463 -473 0
-463 -475 0
-463 -476 0
-463 -477 0
-463 -478 0
-463 -479 0
-463 -480 0
-463 -581 0
-463 -582 0
-463 -583 0
-463 -584 0
-463 -585 0
-463 -586 0
-463 -588 0
-463 -589 0
-463 -590 0
-464 -472 0
-464 -473 0
-464 -474 0
-464 -475 0
-464 -476 0
-464 -477 0
-464 -478 0
-464 -479 0
-464 -480 0
-464 -581 0
-464 -582 0
-464 -583 0
-464 -584 0
-464 -585 0
-464 -586 0
-464 -587 0
-464 -589 0
-464 -590 0
-465 -471 0
-465 -472 0
-465 -473 0
-465 -474 0
-465 -475 0
-465 -477 0
-465 -478 0
-465 -480 0
-465 -581 0
-465 -582 0
-465 -584 0
-465 -585 0
-465 -586 0
-465 -587 0
-465 -588 0
-465 -590 0
-466 -471 0
-466 -472 0
-466 -473 0
-466 -474 0
-466 -475 0
-466 -476 0
-466 -478 0
-466 -479 0
-466 -480 0
-466 -581 0
-466 -582 0
-466 -583 0
-466 -585 0
-466 -586 0
-466 -587 0
-466 -588 0
-466 -589 0
-467 -471 0
-467 -472 0
-467 -473 0
-467 -474 0
-467 -475 0
-467 -476 0
-467 -477 0
-467 -479 0
-467 -480 0
-467 -582 0
-467 -583 0
-467 -584 0
-467 -585 0
-467 -586 0
-467 -587 0
-467 -588 0
-467 -589 0
-467 -590 0
-468 -471 0
-468 -473 0
-468 -474 0
-468 -476 0
-468 -477 0
-468 -478 0
-468 -479 0
-468 -480 0
-468 -581 0
-468 -583 0
-468 -584 0
-468 -586 0
-468 -587 0
-468 -588 0
-468 -589 0
-468 -590 0
-469 -471 0
-469 -472 0
-469 -473 0
-469 -474 0
-469 -475 0
-469 -476 0
-469 -477 0
-469 -478 0
-469 -479 0
-469 -581 0
-469 -582 0
-469 -583 0
-469 -585 0
-469 -586 0
-469 -587 0
-469 -588 0
-469 -589 0
-470 -472 0
-470 -473 0
-470 -474 0
-470 -475 0
-470 -476 0
-470 -477 0
-470 -478 0
-470 -479 0
-470 -480 0
-470 -582 0
-470 -583 0
-470 -584 0
-470 -585 0
-470 -586 0
-470 -587 0
-470 -588 0
-470 -589 0
-470 -590 0
-471 -591 0
-471 -593 0
-471 -594 0
-471 -596 0
-471 -597 0
-471 -598 0
-471 -599 0
-471 -600 0
-472 -591 0
-472 -592 0
-472 -593 0
-472 -594 0
-472 -595 0
-472 -597 0
-472 -598 0
-472 -599 0
-472 -600 0
-473 -591 0
-473 -592 0
-473 -593 0
-473 -594 0
-473 -595 0
-473 -596 0
-473 -598 0
-473 -599 0
-473 -600 0
-474 -591 0
-474 -592 0
-474 -593 0
-474 -594 0
-474 -595 0
-474 -596 0
-474 -597 0
-474 -599 0
-474 -600 0
-475 -591 0
-475 -592 0
-475 -594 0
-475 -595 0
-475 -596 0
-475 -597 0
-475 -598 0
-475 -600 0
-476 -591 0
-476 -592 0
-476 -593 0
-476 -595 0
-476 -596 0
-476 -597 0
-476 -598 0
-476 -599 0
-477 -592 0
-477 -593 0
-477 -594 0
-477 -595 0
-477 -596 0
-477 -597 0
-477 -598 0
-477 -599 0
-477 -600 0
-478 -591 0
-478 -593 0
-478 -594 0
-478 -596 0
-478 -597 0
-478 -598 0
-478 -599 0
-478 -600 0
-479 -591 0
-479 -592 0
-479 -593 0
-479 -595 0
-479 -596 0
-479 -597 0
-479 -598 0
-479 -599 0
-480 -592 0
-480 -593 0
-480 -594 0
-480 -595 0
-480 -596 0
-480 -597 0
-480 -598 0
-480 -599 0
-480 -600 0
-481 -491 0
-481 -493 0
-481 -494 0
-481 -496 0
-481 -497 0
-481 -498 0
-481 -499 0
-481 -500 0
-481 -601 0
-481 -603 0
-481 -604 0
-481 -606 0
-481 -607 0
-481 -608 0
-481 -609 0
-481 -610 0
-482 -491 0
-482 -492 0
-482 -494 0
-482 -495 0
-482 -496 0
-482 -497 0
-482 -498 0
-482 -499 0
-482 -500 0
-482 -601 0
-482 -602 0
-482 -603 0
-482 -604 0
-482 -605 0
-482 -607 0
-482 -608 0
-482 -609 0
-482 -610 0
-483 -491 0
-483 -492 0
-483 -493 0
-483 -495 0
-483 -496 0
-483 -497 0
-483 -498 0
-483 -499 0
-483 -500 0
-483 -601 0
-483 -602 0
-483 -603 0
-483 -604 0
-483 -605 0
-483 -606 0
-483 -608 0
-483 -609 0
-483 -610 0
-484 -492 0
-484 -493 0
-484 -494 0
-484 -495 0
-484 -496 0
-484 -497 0
-484 -498 0
-484 -499 0
-484 -500 0
-484 -601 0
-484 -602 0
-484 -603 0
-484 -604 0
-484 -605 0
-484 -606 0
-484 -607 0
-484 -609 0
-484 -610 0
-485 -491 0
-485 -492 0
-485 -493 0
-485 -494 0
-485 -495 0
-485 -497 0
-485 -498 0
-485 -500 0
-485 -601 0
-485 -602 0
-485 -604 0
-485 -605 0
-485 -606 0
-485 -607 0
-485 -608 0
-485 -610 0
-486 -491 0
-486 -492 0
-486 -493 0
-486 -494 0
-486 -495 0
-486 -496 0
-486 -498 0
-486 -499 0
-486 -500 0
-486 -601 0
-486 -602 0
-486 -603 0
-486 -605 0
-486 -606 0
-486 -607 0
-486 -608 0
-486 -609 0
-487 -491 0
-487 -492 0
-487 -493 0
-487 -494 0
-487 -495 0
-487 -496 0
-487 -497 0
-487 -499 0
-487 -500 0
-487 -602 0
-487 -603 0
-487 -604 0
-487 -605 0
-487 -606 0
-487 -607 0
-487 -608 0
-487 -609 0
-487 -610 0
-488 -491 0
-488 -493 0
-488 -494 0
-488 -496 0
-488 -497 0
-488 -498 0
-488 -499 0
-488 -500 0
-488 -601 0
-488 -603 0
-488 -604 0
-488 -606 0
-488 -607 0
-488 -608 0
-488 -609 0
-488 -610 0
-489 -491 0
-489 -492 0
-489 -493 0
-489 -494 0
-489 -495 0
-489 -496 0
-489 -497 0
-489 -498 0
-489 -499 0
-489 -601 0
-489 -602 0
-489 -603 0
-489 -605 0
-489 -606 0
-489 -607 0
-489 -608 0
-489 -609 0
-490 -492 0
-490 -493 0
-490 -494 0
-490 -495 0
-490 -496 0
-490 -497 0
-490 -498 0
-490 -499 0
-490 -500 0
-490 -602 0
-490 -603 0
-490 -604 0
-490 -605 0
-490 -606 0
-490 -607 0
-490 -608 0
-490 -609 0
-490 -610 0
-491 -501 0
-491 -503 0
-491 -504 0
-491 -506 0
-491 -507 0
-491 -508 0
-491 -509 0
-491 -510 0
-491 -611 0
-491 -613 0
-491 -614 0
-491 -616 0
-491 -617 0
-491 -618 0
-491 -619 0
-491 -620 0
-492 -501 0
-492 -502 0
-492 -504 0
-492 -505 0
-492 -506 0
-492 -507 0
-492 -508 0
-492 -509 0
-492 -510 0
-492 -611 0
-492 -612 0
-492 -613 0
-492 -614 0
-492 -615 0
-492 -617 0
-492 -618 0
-492 -619 0
-492 -620 0
-493 -501 0
-493 -502 0
-493 -503 0
-493 -505 0
-493 -506 0
-493 -507 0
-493 -508 0
-493 -509 0
-493 -510 0
-493 -611 0
-493 -612 0
-493 -613 0
-493 -614 0
-493 -615 0
-493 -616 0
-493 -618 0
-493 -619 0
-493 -620 0
-494 -502 0
-494 -503 0
-494 -504 0
-494 -505 0
-494 -506 0
-494 -507 0
-494 -508 0
-494 -509 0
-494 -510 0
-494 -611 0
-494 -612 0
-494 -613 0
-494 -614 0
-494 -615 0
-494 -616 0
-494 -617 0
-494 -619 0
-494 -620 0
-495 -501 0
-495 -502 0
-495 -503 0
-495 -504 0
-495 -505 0
-495 -507 0
-495 -508 0
-495 -510 0
-495 -611 0
-495 -612 0
-495 -614 0
-495 -615 0
-495 -616 0
-495 -617 0
-495 -618 0
-495 -620 0
-496 -501 0
-496 -502 0
-496 -503 0
-496 -504 0
-496 -505 0
-496 -506 0
-496 -508 0
-496 -509 0
-496 -510 0
-496 -611 0
-496 -612 0
-496 -613 0
-496 -615 0
-496 -616 0
-496 -617 0
-496 -618 0
-496 -619 0
-497 -501 0
-497 -502 0
-497 -503 0
-497 -504 0
-497 -505 0
-497 -506 0
-497 -507 0
-497 -509 0
-497 -510 0
-497 -612 0
-497 -613 0
-497 -614 0
-497 -615 0
-497 -616 0
-497 -617 0
-497 -618 0
-497 -619 0
-497 -620 0
-498 -501 0
-498 -503 0
-498 -504 0
-498 -506 0
-498 -507 0
-498 -508 0
-498 -509 0
-498 -510 0
-498 -611 0
-498 -613 0
-498 -614 0
-498 -616 0
-498 -617 0
-498 -618 0
-498 -619 0
-498 -620 0
-499 -501 0
-499 -502 0
-499 -503 0
-499 -504 0
-499 -505 0
-499 -506 0
-499 -507 0
-499 -508 0
-499 -509 0
-499 -611 0
-499 -612 0
-499 -613 0
-499 -615 0
-499 -616 0
-499 -617 0
-499 -618 0
-499 -619 0
-500 -502 0
-500 -503 0
-500 -504 0
-500 -505 0
-500 -506 0
-500 -507 0
-500 -508 0
-500 -509 0
-500 -510 0
-500 -612 0
-500 -613 0
-500 -614 0
-500 -615 0
-500 -616 0
-500 -617 0
-500 -618 0
-500 -619 0
-500 -620 0
-501 -511 0
-501 -513 0
-501 -514 0
-501 -516 0
-501 -517 0
-501 -518 0
-501 -519 0
-501 -520 0
-501 -621 0
-501 -623 0
-501 -624 0
-501 -626 0
-501 -627 0
-501 -628 0
-501 -629 0
-501 -630 0
-502 -511 0
-502 -512 0
-502 -514 0
-502 -515 0
-502 -516 0
-502 -517 0
-502 -518 0
-502 -519 0
-502 -520 0
-502 -621 0
-502 -622 0
-502 -623 0
-502 -624 0
-502 -625 0
-502 -627 0
-502 -628 0
-502 -629 0
-502 -630 0
-503 -511 0
-503 -512 0
-503 -513 0
-503 -515 0
-503 -516 0
-503 -517 0
-503 -518 0
-503 -519 0
-503 -520 0
-503 -621 0
-503 -622 0
-503 -623 0
-503 -624 0
-503 -625 0
-503 -626 0
-503 -628 0
-503 -629 0
-503 -630 0
-504 -512 0
-504 -513 0
-504 -514 0
-504 -515 0
-504 -516 0
-504 -517 0
-504 -518 0
-504 -519 0
-504 -520 0
-504 -621 0
-504 -622 0
-504 -623 0
-504 -624 0
-504 -625 0
-504 -626 0
-504 -627 0
-504 -629 0
-504 -630 0
-505 -511 0
-505 -512 0
-505 -513 0
-505 -514 0
-505 -515 0
-505 -517 0
-505 -518 0
-505 -520 0
-505 -621 0
-505 -622 0
-505 -624 0
-505 -625 0
-505 -626 0
-505 -627 0
-505 -628 0
-505 -630 0
-506 -511 0
-506 -512 0
-506 -513 0
-506 -514 0
-506 -515 0
-506 -516 0
-506 -518 0
-506 -519 0
-506 -520 0
-506 -621 0
-506 -622 0
-506 -623 0
-506 -625 0
-506 -626 0
-506 -627 0
-506 -628 0
-506 -629 0
-507 -511 0
-507 -512 0
-507 -513 0
-507 -514 0
-507 -515 0
-507 -516 0
-507 -517 0
-507 -519 0
-507 -520 0
-507 -622 0
-507 -623 0
-507 -624 0
-507 -625 0
-507 -626 0
-507 -627 0
-507 -628 0
-507 -629 0
-507 -630 0
-508 -511 0
-508 -513 0
-508 -514 0
-508 -516 0
-508 -517 0
-508 -518 0
-508 -519 0
-508 -520 0
-508 -621 0
-508 -623 0
-508 -624 0
-508 -626 0
-508 -627 0
-508 -628 0
-508 -629 0
-508 -630 0
-509 -511 0
-509 -512 0
-509 -513 0
-509 -514 0
-509 -515 0
-509 -516 0
-509 -517 0
-509 -518 0
-509 -519 0
-509 -621 0
-509 -622 0
-509 -623 0
-509 -625 0
-509 -626 0
-509 -627 0
-509 -628 0
-509 -629 0
-510 -512 0
-510 -513 0
-510 -514 0
-510 -515 0
-510 -516 0
-510 -517 0
-510 -518 0
-510 -519 0
-510 -520 0
-510 -622 0
-510 -623 0
-510 -624 0
-510 -625 0
-510 -626 0
-510 -627 0
-510 -628 0
-510 -629 0
-510 -630 0
-511 -521 0
-511 -523 0
-511 -524 0
-511 -526 0
-511 -527 0
-511 -528 0
-511 -529 0
-511 -530 0
-511 -631 0
-511 -633 0
-511 -634 0
-511 -636 0
-511 -637 0
-511 -638 0
-511 -639 0
-511 -640 0
-512 -521 0
-512 -522 0
-512 -524 0
-512 -525 0
-512 -526 0
-512 -527 0
-512 -528 0
-512 -529 0
-512 -530 0
-512 -631 0
-512 -632 0
-512 -633 0
-512 -634 0
-512 -635 0
-512 -637 0
-512 -638 0
-512 -639 0
-512 -640 0
-513 -521 0
-513 -522 0
-513 -523 0
-513 -525 0
-513 -526 0
-513 -527 0
-513 -528 0
-513 -529 0
-513 -530 0
-513 -631 0
-513 -632 0
-513 -633 0
-513 -634 0
-513 -635 0
-513 -636 0
-513 -638 0
-513 -639 0
-513 -640 0
-514 -522 0
-514 -523 0
-514 -524 0
-514 -525 0
-514 -526 0
-514 -527 0
-514 -528 0
-514 -529 0
-514 -530 0
-514 -631 0
-514 -632 0
-514 -633 0
-514 -634 0
-514 -635 0
-514 -636 0
-514 -637 0
-514 -639 0
-514 -640 0
-515 -521 0
-515 -522 0
-515 -523 0
-515 -524 0
-515 -525 0
-515 -527 0
-515 -528 0
-515 -530 0
-515 -631 0
-515 -632 0
-515 -634 0
-515 -635 0
-515 -636 0
-515 -637 0
-515 -638 0
-515 -640 0
-516 -521 0
-516 -522 0
-516 -523 0
-516 -524 0
-516 -525 0
-516 -526 0
-516 -528 0
-516 -529 0
-516 -530 0
-516 -631 0
-516 -632 0
-516 -633 0
-516 -635 0
-516 -636 0
-516 -637 0
-516 -638 0
-516 -639 0
-517 -521 0
-517 -522 0
-517 -523 0
-517 -524 0
-517 -525 0
-517 -526 0
-517 -527 0
-517 -529 0
-517 -530 0
-517 -632 0
-517 -633 0
-517 -634 0
-517 -635 0
-517 -636 0
-517 -637 0
-517 -638 0
-517 -639 0
-517 -640 0
-518 -521 0
-518 -523 0
-518 -524 0
-518 -526 0
-518 -527 0
-518 -528 0
-518 -529 0
-518 -530 0
-518 -631 0
-518 -633 0
-518 -634 0
-518 -636 0
-518 -637 0
-518 -638 0
-518 -639 0
-518 -640 0
-519 -521 0
-519 -522 0
-519 -523 0
-519 -524 0
-519 -525 0
-519 -526 0
-519 -527 0
-519 -528 0
-519 -529 0
-519 -631 0
-519 -632 0
-519 -633 0
-519 -635 0
-519 -636 0
-519 -637 0
-519 -638 0
-519 -639 0
-520 -522 0
-520 -523 0
-520 -524 0
-520 -525 0
-520 -526 0
-520 -527 0
-520 -528 0
-520 -529 0
-520 -530 0
-520 -632 0
-520 -633 0
-520 -634 0
-520 -635 0
-520 -636 0
-520 -637 0
-520 -638 0
-520 -639 0
-520 -640 0
-521 -531 0
-521 -533 0
-521 -534 0
-521 -536 0
-521 -537 0
-521 -538 0
-521 -539 0
-521 -540 0
-521 -641 0
-521 -643 0
-521 -644 0
-521 -646 0
-521 -647 0
-521 -648 0
-521 -649 0
-521 -650 0
-522 -531 0
-522 -532 0
-522 -534 0
-522 -535 0
-522 -536 0
-522 -537 0
-522 -538 0
-522 -539 0
-522 -540 0
-522 -641 0
-522 -642 0
-522 -643 0
-522 -644 0
-522 -645 0
-522 -647 0
-522 -648 0
-522 -649 0
-522 -650 0
-523 -531 0
-523 -532 0
-523 -533 0
-523 -535 0
-523 -536 0
-523 -537 0
-523 -538 0
-523 -539 0
-523 -540 0
-523 -641 0
-523 -642 0
-523 -643 0
-523 -644 0
-523 -645 0
-523 -646 0
-523 -648 0
-523 -649 0
-523 -650 0
-524 -532 0
-524 -533 0
-524 -534 0
-524 -535 0
-524 -536 0
-524 -537 0
-524 -538 0
-524 -539 0
-524 -540 0
-524 -641 0
-524 -642 0
-524 -643 0
-524 -644 0
-524 -645 0
-524 -646 0
-524 -647 0
-524 -649 0
-524 -650 0
-525 -531 0
-525 -532 0
-525 -533 0
-525 -534 0
-525 -535 0
-525 -537 0
-525 -538 0
-525 -540 0
-525 -641 0
-525 -642 0
-525 -644 0
-525 -645 0
-525 -646 0
-525 -647 0
-525 -648 0
-525 -650 0
-526 -531 0
-526 -532 0
-526 -533 0
-526 -534 0
-526 -535 0
-526 -536 0
-526 -538 0
-526 -539 0
-526 -540 0
-526 -641 0
-526 -642 0
-526 -643 0
-526 -645 0
-526 -646 0
-526 -647 0
-526 -648 0
-526 -649 0
-527 -531 0
-527 -532 0
-527 -533 0
-527 -534 0
-527 -535 0
-527 -536 0
-527 -537 0
-527 -539 0
-527 -540 0
-527 -642 0
-527 -643 0
-527 -644 0
-527 -645 0
-527 -646 0
-527 -647 0
-527 -648 0
-527 -649 0
-527 -650 0
-528 -531 0
-528 -533 0
-528 -534 0
-528 -536 0
-528 -537 0
-528 -538 0
-528 -539 0
-528 -540 0
-528 -641 0
-528 -643 0
-528 -644 0
-528 -646 0
-528 -647 0
-528 -648 0
-528 -649 0
-528 -650 0
-529 -531 0
-529 -532 0
-529 -533 0
-529 -534 0
-529 -535 0
-529 -536 0
-529 -537 0
-529 -538 0
-529 -539 0
-529 -641 0
-529 -642 0
-529 -643 0
-529 -645 0
-529 -646 0
-529 -647 0
-529 -648 0
-529 -649 0
-530 -532 0
-530 -533 0
-530 -534 0
-530 -535 0
-530 -536 0
-530 -537 0
-530 -538 0
-530 -539 0
-530 -540 0
-530 -642 0
-530 -643 0
-530 -644 0
-530 -645 0
-530 -646 0
-530 -647 0
-530 -648 0
-530 -649 0
-530 -650 0
-531 -541 0
-531 -543 0
-531 -544 0
-531 -546 0
-531 -547 0
-531 -548 0
-531 -549 0
-531 -550 0
-531 -651 0
-531 -653 0
-531 -654 0
-531 -656 0
-531 -657 0
-531 -658 0
-531 -659 0
-531 -660 0
-532 -541 0
-532 -542 0
-532 -544 0
-532 -545 0
-532 -546 0
-532 -547 0
-532 -548 0
-532 -549 0
-532 -550 0
-532 -651 0
-532 -652 0
-532 -653 0
-532 -654 0
-532 -655 0
-532 -657 0
-532 -658 0
-532 -659 0
-532 -660 0
-533 -541 0
-533 -542 0
-533 -543 0
-533 -545 0
-533 -546 0
-533 -547 0
-533 -548 0
-533 -549 0
-533 -550 0
-533 -651 0
-533 -652 0
-533 -653 0
-533 -654 0
-533 -655 0
-533 -656 0
-533 -658 0
-533 -659 0
-533 -660 0
-534 -542 0
-534 -543 0
-534 -544 0
-534 -545 0
-534 -546 0
-534 -547 0
-534 -548 0
-534 -549 0
-534 -550 0
-534 -651 0
-534 -652 0
-534 -653 0
-534 -654 0
-534 -655 0
-534 -656 0
-534 -657 0
-534 -659 0
-534 -660 0
-535 -541 0
-535 -542 0
-535 -543 0
-535 -544 0
-535 -545 0
-535 -547 0
-535 -548 0
-535 -550 0
-535 -651 0
-535 -652 0
-535 -654 0
-535 -655 0
-535 -656 0
-535 -657 0
-535 -658 0
-535 -660 0
-536 -541 0
-536 -542 0
-536 -543 0
-536 -544 0
-536 -545 0
-536 -546 0
-536 -548 0
-536 -549 0
-536 -550 0
-536 -651 0
-536 -652 0
-536 -653 0
-536 -655 0
-536 -656 0
-536 -657 0
-536 -658 0
-536 -659 0
-537 -541 0
-537 -542 0
-537 -543 0
-537 -544 0
-537 -545 0
-537 -546 0
-537 -547 0
-537 -549 0
-537 -550 0
-537 -652 0
-537 -653 0
-537 -654 0
-537 -655 0
-537 -656 0
-537 -657 0
-537 -658 0
-537 -659 0
-537 -660 0
-538 -541 0
-538 -543 0
-538 -544 0
-538 -546 0
-538 -547 0
-538 -548 0
-538 -549 0
-538 -550 0
-538 -651 0
-538 -653 0
-538 -654 0
-538 -656 0
-538 -657 0
-538 -658 0
-538 -659 0
-538 -660 0
-539 -541 0
-539 -542 0
-539 -543 0
-539 -544 0
-539 -545 0
-539 -546 0
-539 -547 0
-539 -548 0
-539 -549 0
-539 -651 0
-539 -652 0
-539 -653 0
-539 -655 0
-539 -656 0
-539 -657 0
-539 -658 0
-539 -659 0
-540 -542 0
-540 -543 0
-540 -544 0
-540 -545 0
-540 -546 0
-540 -547 0
-540 -548 0
-540 -549 0
-540 -550 0
-540 -652 0
-540 -653 0
-540 -654 0
-540 -655 0
-540 -656 0
-540 -657 0
-540 -658 0
-540 -659 0
-540 -660 0
-541 -551 0
-541 -553 0
-541 -554 0
-541 -556 0
-541 -557 0
-541 -558 0
-541 -559 0
-541 -560 0
-541 -661 0
-541 -663 0
-541 -664 0
-541 -666 0
-541 -667 0
-541 -668 0
-541 -669 0
-541 -670 0
-542 -551 0
-542 -552 0
-542 -554 0
-542 -555 0
-542 -556 0
-542 -557 0
-542 -558 0
-542 -559 0
-542 -560 0
-542 -661 0
-542 -662 0
-542 -663 0
-542 -664 0
-542 -665 0
-542 -667 0
-542 -668 0
-542 -669 0
-542 -670 0
-543 -551 0
-543 -552 0
-543 -553 0
-543 -555 0
-543 -556 0
-543 -557 0
-543 -558 0
-543 -559 0
-543 -560 0
-543 -661 0
-543 -662 0
-543 -663 0
-543 -664 0
-543 -665 0
-543 -666 0
-543 -668 0
-543 -669 0
-543 -670 0
-544 -552 0
-544 -553 0
-544 -554 0
-544 -555 0
-544 -556 0
-544 -557 0
-544 -558 0
-544 -559 0
-544 -560 0
-544 -661 0
-544 -662 0
-544 -663 0
-544 -664 0
-544 -665 0
-544 -666 0
-544 -667 0
-544 -669 0
-544 -670 0
-545 -551 0
-545 -552 0
-545 -553 0
-545 -554 0
-545 -555 0
-545 -557 0
-545 -558 0
-545 -560 0
-545 -661 0
-545 -662 0
-545 -664 0
-545 -665 0
-545 -666 0
-545 -667 0
-545 -668 0
-545 -670 0
-546 -551 0
-546 -552 0
-546 -553 0
-546 -554 0
-546 -555 0
-546 -556 0
-546 -558 0
-546 -559 0
-546 -560 0
-546 -661 0
-546 -662 0
-546 -663 0
-546 -665 0
-546 -666 0
-546 -667 0
-546 -668 0
-546 -669 0
-547 -551 0
-547 -552 0
-547 -553 0
-547 -554 0
-547 -555 0
-547 -556 0
-547 -557 0
-547 -559 0
-547 -560 0
-547 -662 0
-547 -663 0
-547 -664 0
-547 -665 0
-547 -666 0
-547 -667 0
-547 -668 0
-547 -669 0
-547 -670 0
-548 -551 0
-548 -553 0
-548 -554 0
-548 -556 0
-548 -557 0
-548 -558 0
-548 -559 0
-548 -560 0
-548 -661 0
-548 -663 0
-548 -664 0
-548 -666 0
-548 -667 0
-548 -668 0
-548 -669 0
-548 -670 0
-549 -551 0
-549 -552 0
-549 -553 0
-549 -554 0
-549 -555 0
-549 -556 0
-549 -557 0
-549 -558 0
-549 -559 0
-549 -661 0
-549 -662 0
-549 -663 0
-549 -665 0
-549 -666 0
-549 -667 0
-549 -668 0
-549 -669 0
-550 -552 0
-550 -553 0
-550 -554 0
-550 -555 0
-550 -556 0
-550 -557 0
-550 -558 0
-550 -559 0
-550 -560 0
-550 -662 0
-550 -663 0
-550 -664 0
-550 -665 0
-550 -666 0
-550 -667 0
-550 -668 0
-550 -669 0
-550 -670 0
-551 -561 0
-551 -563 0
-551 -564 0
-551 -566 0
-551 -567 0
-551 -568 0
-551 -569 0
-551 -570 0
-551 -671 0
-551 -673 0
-551 -674 0
-551 -676 0
-551 -677 0
-551 -678 0
-551 -679 0
-551 -680 0
-552 -561 0
-552 -562 0
-552 -564 0
-552 -565 0
-552 -566 0
-552 -567 0
-552 -568 0
-552 -569 0
-552 -570 0
-552 -671 0
-552 -672 0
-552 -673 0
-552 -674 0
-552 -675 0
-552 -677 0
-552 -678 0
-552 -679 0
-552 -680 0
-553 -561 0
-553 -562 0
-553 -563 0
-553 -565 0
-553 -566 0
-553 -567 0
-553 -568 0
-553 -569 0
-553 -570 0
-553 -671 0
-553 -672 0
-553 -673 0
-553 -674 0
-553 -675 0
-553 -676 0
-553 -678 0
-553 -679 0
-553 -680 0
-554 -562 0
-554 -563 0
-554 -564 0
-554 -565 0
-554 -566 0
-554 -567 0
-554 -568 0
-554 -569 0
-554 -570 0
-554 -671 0
-554 -672 0
-554 -673 0
-554 -674 0
-554 -675 0
-554 -676 0
-554 -677 0
-554 -679 0
-554 -680 0
-555 -561 0
-555 -562 0
-555 -563 0
-555 -564 0
-555 -565 0
-555 -567 0
-555 -568 0
-555 -570 0
-555 -671 0
-555 -672 0
-555 -674 0
-555 -675 0
-555 -676 0
-555 -677 0
-555 -678 0
-555 -680 0
-556 -561 0
-556 -562 0
-556 -563 0
-556 -564 0
-556 -565 0
-556 -566 0
-556 -568 0
-556 -569 0
-556 -570 0
-556 -671 0
-556 -672 0
-556 -673 0
-556 -675 0
-556 -676 0
-556 -677 0
-556 -678 0
-556 -679 0
-557 -561 0
-557 -562 0
-557 -563 0
-557 -564 0
-557 -565 0
-557 -566 0
-557 -567 0
-557 -569 0
-557 -570 0
-557 -672 0
-557 -673 0
-557 -674 0
-557 -675 0
-557 -676 0
-557 -677 0
-557 -678 0
-557 -679 0
-557 -680 0
-558 -561 0
-558 -563 0
-558 -564 0
-558 -566 0
-558 -567 0
-558 -568 0
-558 -569 0
-558 -570 0
-558 -671 0
-558 -673 0
-558 -674 0
-558 -676 0
-558 -677 0
-558 -678 0
-558 -679 0
-558 -680 0
-559 -561 0
-559 -562 0
-559 -563 0
-559 -564 0
-559 -565 0
-559 -566 0
-559 -567 0
-559 -568 0
-559 -569 0
-559 -671 0
-559 -672 0
-559 -673 0
-559 -675 0
-559 -676 0
-559 -677 0
-559 -678 0
-559 -679 0
-560 -562 0
-560 -563 0
-560 -564 0
-560 -565 0
-560 -566 0
-560 -567 0
-560 -568 0
-560 -569 0
-560 -570 0
-560 -672 0
-560 -673 0
-560 -674 0
-560 -675 0
-560 -676 0
-560 -677 0
-560 -678 0
-560 -679 0
-560 -680 0
-561 -571 0
-561 -573 0
-561 -574 0
-561 -576 0
-561 -577 0
-561 -578 0
-561 -579 0
-561 -580 0
-561 -681 0
-561 -683 0
-561 -684 0
-561 -686 0
-561 -687 0
-561 -688 0
-561 -689 0
-561 -690 0
-562 -571 0
-562 -572 0
-562 -574 0
-562 -575 0
-562 -576 0
-562 -577 0
-562 -578 0
-562 -579 0
-562 -580 0
-562 -681 0
-562 -682 0
-562 -683 0
-562 -684 0
-562 -685 0
-562 -687 0
-562 -688 0
-562 -689 0
-562 -690 0
-563 -571 0
-563 -572 0
-563 -573 0
-563 -575 0
-563 -576 0
-563 -577 0
-563 -578 0
-563 -579 0
-563 -580 0
-563 -681 0
-563 -682 0
-563 -683 0
-563 -684 0
-563 -685 0
-563 -686 0
-563 -688 0
-563 -689 0
-563 -690 0
-564 -572 0
-564 -573 0
-564 -574 0
-564 -575 0
-564 -576 0
-564 -577 0
-564 -578 0
-564 -579 0
-564 -580 0
-564 -681 0
-564 -682 0
-564 -683 0
-564 -684 0
-564 -685 0
-564 -686 0
-564 -687 0
-564 -689 0
-564 -690 0
-565 -571 0
-565 -572 0
-565 -573 0
-565 -574 0
-565 -575 0
-565 -577 0
-565 -578 0
-565 -580 0
-565 -681 0
-565 -682 0
-565 -684 0
-565 -685 0
-565 -686 0
-565 -687 0
-565 -688 0
-565 -690 0
-566 -571 0
-566 -572 0
-566 -573 0
-566 -574 0
-566 -575 0
-566 -576 0
-566 -578 0
-566 -579 0
-566 -580 0
-566 -681 0
-566 -682 0
-566 -683 0
-566 -685 0
-566 -686 0
-566 -687 0
-566 -688 0
-566 -689 0
-567 -571 0
-567 -572 0
-567 -573 0
-567 -574 0
-567 -575 0
-567 -576 0
-567 -577 0
-567 -579 0
-567 -580 0
-567 -682 0
-567 -683 0
-567 -684 0
-567 -685 0
-567 -686 0
-567 -687 0
-567 -688 0
-567 -689 0
-567 -690 0
-568 -571 0
-568 -573 0
-568 -574 0
-568 -576 0
-568 -577 0
-568 -578 0
-568 -579 0
-568 -580 0
-568 -681 0
-568 -683 0
-568 -684 0
-568 -686 0
-568 -687 0
-568 -688 0
-568 -689 0
-568 -690 0
-569 -571 0
-569 -572 0
-569 -573 0
-569 -574 0
-569 -575 0
-569 -576 0
-569 -577 0
-569 -578 0
-569 -579 0
-569 -681 0
-569 -682 0
-569 -683 0
-569 -685 0
-569 -686 0
-569 -687 0
-569 -688 0
-569 -689 0
-570 -572 0
-570 -573 0
-570 -574 0
-570 -575 0
-570 -576 0
-570 -577 0
-570 -578 0
-570 -579 0
-570 -580 0
-570 -682 0
-570 -683 0
-570 -684 0
-570 -685 0
-570 -686 0
-570 -687 0
-570 -688 0
-570 -689 0
-570 -690 0
-571 -581 0
-571 -583 0
-571 -584 0
-571 -586 0
-571 -587 0
-571 -588 0
-571 -589 0
-571 -590 0
-571 -691 0
-571 -693 0
-571 -694 0
-571 -696 0
-571 -697 0
-571 -698 0
-571 -699 0
-571 -700 0
-572 -581 0
-572 -582 0
-572 -584 0
-572 -585 0
-572 -586 0
-572 -587 0
-572 -588 0
-572 -589 0
-572 -590 0
-572 -691 0
-572 -692 0
-572 -693 0
-572 -694 0
-572 -695 0
-572 -697 0
-572 -698 0
-572 -699 0
-572 -700 0
-573 -581 0
-573 -582 0
-573 -583 0
-573 -585 0
-573 -586 0
-573 -587 0
-573 -588 0
-573 -589 0
-573 -590 0
-573 -691 0
-573 -692 0
-573 -693 0
-573 -694 0
-573 -695 0
-573 -696 0
-573 -698 0
-573 -699 0
-573 -700 0
-574 -582 0
-574 -583 0
-574 -584 0
-574 -585 0
-574 -586 0
-574 -587 0
-574 -588 0
-574 -589 0
-574 -590 0
-574 -691 0
-574 -692 0
-574 -693 0
-574 -694 0
-574 -695 0
-574 -696 0
-574 -697 0
-574 -699 0
-574 -700 0
-575 -581 0
-575 -582 0
-575 -583 0
-575 -584 0
-575 -585 0
-575 -587 0
-575 -588 0
-575 -590 0
-575 -691 0
-575 -692 0
-575 -694 0
-575 -695 0
-575 -696 0
-575 -697 0
-575 -698 0
-575 -700 0
-576 -581 0
-576 -582 0
-576 -583 0
-576 -584 0
-576 -585 0
-576 -586 0
-576 -588 0
-576 -589 0
-576 -590 0
-576 -691 0
-576 -692 0
-576 -693 0
-576 -695 0
-576 -696 0
-576 -697 0
-576 -698 0
-576 -699 0
-577 -581 0
-577 -582 0
-577 -583 0
-577 -584 0
-577 -585 0
-577 -586 0
-577 -587 0
-577 -589 0
-577 -590 0
-577 -692 0
-577 -693 0
-577 -694 0
-577 -695 0
-577 -696 0
-577 -697 0
-577 -698 0
-577 -699 0
-577 -700 0
-578 -581 0
-578 -583 0
-578 -584 0
-578 -586 0
-578 -587 0
-578 -588 0
-578 -589 0
-578 -590 0
-578 -691 0
-578 -693 0
-578 -694 0
-578 -696 0
-578 -697 0
-578 -698 0
-578 -699 0
-578 -700 0
-579 -581 0
-579 -582 0
-579 -583 0
-579 -584 0
-579 -585 0
-579 -586 0
-579 -587 0
-579 -588 0
-579 -589 0
-579 -691 0
-579 -692 0
-579 -693 0
-579 -695 0
-579 -696 0
-579 -697 0
-579 -698 0
-579 -699 0
-580 -582 0
-580 -583 0
-580 -584 0
-580 -585 0
-580 -586 0
-580 -587 0
-580 -588 0
-580 -589 0
-580 -590 0
-580 -692 0
-580 -693 0
-580 -694 0
-580 -695 0
-580 -696 0
-580 -697 0
-580 -698 0
-580 -699 0
-580 -700 0
-581 -591 0
-581 -593 0
-581 -594 0
-581 -596 0
-581 -597 0
-581 -598 0
-581 -599 0
-581 -600 0
-581 -701 0
-581 -703 0
-581 -704 0
-581 -706 0
-581 -707 0
-581 -708 0
-581 -709 0
-581 -710 0
-582 -591 0
-582 -592 0
-582 -594 0
-582 -595 0
-582 -596 0
-582 -597 0
-582 -598 0
-582 -599 0
-582 -600 0
-582 -701 0
-582 -702 0
-582 -703 0
-582 -704 0
-582 -705 0
-582 -707 0
-582 -708 0
-582 -709 0
-582 -710 0
-583 -591 0
-583 -592 0
-583 -593 0
-583 -595 0
-583 -596 0
-583 -597 0
-583 -598 0
-583 -599 0
-583 -600 0
-583 -701 0
-583 -702 0
-583 -703 0
-583 -704 0
-583 -705 0
-583 -706 0
-583 -708 0
-583 -709 0
-583 -710 0
-584 -592 0
-584 -593 0
-584 -594 0
-584 -595 0
-584 -596 0
-584 -597 0
-584 -598 0
-584 -599 0
-584 -600 0
-584 -701 0
-584 -702 0
-584 -703 0
-584 -704 0
-584 -705 0
-584 -706 0
-584 -707 0
-584 -709 0
-584 -710 0
-585 -591 0
-585 -592 0
-585 -593 0
-585 -594 0
-585 -595 0
-585 -597 0
-585 -598 0
-585 -600 0
-585 -701 0
-585 -702 0
-585 -704 0
-585 -705 0
-585 -706 0
-585 -707 0
-585 -708 0
-585 -710 0
-586 -591 0
-586 -592 0
-586 -593 0
-586 -594 0
-586 -595 0
-586 -596 0
-586 -598 0
-586 -599 0
-586 -600 0
-586 -701 0
-586 -702 0
-586 -703 0
-586 -705 0
-586 -706 0
-586 -707 0
-586 -708 0
-586 -709 0
-587 -591 0
-587 -592 0
-587 -593 0
-587 -594 0
-587 -595 0
-587 -596 0
-587 -597 0
-587 -599 0
-587 -600 0
-587 -702 0
-587 -703 0
-587 -704 0
-587 -705 0
-587 -706 0
-587 -707 0
-587 -708 0
-587 -709 0
-587 -710 0
-588 -591 0
-588 -593 0
-588 -594 0
-588 -596 0
-588 -597 0
-588 -598 0
-588 -599 0
-588 -600 0
-588 -701 0
-588 -703 0
-588 -704 0
-588 -706 0
-588 -707 0
-588 -708 0
-588 -709 0
-588 -710 0
-589 -591 0
-589 -592 0
-589 -593 0
-589 -594 0
-589 -595 0
-589 -596 0
-589 -597 0
-589 -598 0
-589 -599 0
-589 -701 0
-589 -702 0
-589 -703 0
-589 -705 0
-589 -706 0
-589 -707 0
-589 -708 0
-589 -709 0
-590 -592 0
-590 -593 0
-590 -594 0
-590 -595 0
-590 -596 0
-590 -597 0
-590 -598 0
-590 -599 0
-590 -600 0
-590 -702 0
-590 -703 0
-590 -704 0
-590 -705 0
-590 -706 0
-590 -707 0
-590 -708 0
-590 -709 0
-590 -710 0
-591 -711 0
-591 -713 0
-591 -714 0
-591 -716 0
-591 -717 0
-591 -718 0
-591 -719 0
-591 -720 0
-592 -711 0
-592 -712 0
-592 -713 0
-592 -714 0
-592 -715 0
-592 -717 0
-592 -718 0
-592 -719 0
-592 -720 0
-593 -711 0
-593 -712 0
-593 -713 0
-593 -714 0
-593 -715 0
-593 -716 0
-593 -718 0
-593 -719 0
-593 -720 0
-594 -711 0
-594 -712 0
-594 -713 0
-594 -714 0
-594 -715 0
-594 -716 0
-594 -717 0
-594 -719 0
-594 -720 0
-595 -711 0
-595 -712 0
-595 -714 0
-595 -715 0
-595 -716 0
-595 -717 0
-595 -718 0
-595 -720 0
-596 -711 0
-596 -712 0
-596 -713 0
-596 -715 0
-596 -716 0
-596 -717 0
-596 -718 0
-596 -719 0
-597 -712 0
-597 -713 0
-597 -714 0
-597 -715 0
-597 -716 0
-597 -717 0
-597 -718 0
-597 -719 0
-597 -720 0
-598 -711 0
-598 -713 0
-598 -714 0
-598 -716 0
-598 -717 0
-598 -718 0
-598 -719 0
-598 -720 0
-599 -711 0
-599 -712 0
-599 -713 0
-599 -715 0
-599 -716 0
-599 -717 0
-599 -718 0
-599 -719 0
-600 -712 0
-600 -713 0
-600 -714 0
-600 -715 0
-600 -716 0
-600 -717 0
-600 -718 0
-600 -719 0
-600 -720 0
-601 -611 0
-601 -613 0
-601 -614 0
-601 -616 0
-601 -617 0
-601 -618 0
-601 -619 0
-601 -620 0
-601 -721 0
-601 -723 0
-601 -724 0
-601 -726 0
-601 -727 0
-601 -728 0
-601 -729 0
-601 -730 0
-602 -611 0
-602 -612 0
-602 -614 0
-602 -615 0
-602 -616 0
-602 -617 0
-602 -618 0
-602 -619 0
-602 -620 0
-602 -721 0
-602 -722 0
-602 -723 0
-602 -724 0
-602 -725 0
-602 -727 0
-602 -728 0
-602 -729 0
-602 -730 0
-603 -611 0
-603 -612 0
-603 -613 0
-603 -615 0
-603 -616 0
-603 -617 0
-603 -618 0
-603 -619 0
-603 -620 0
-603 -721 0
-603 -722 0
-603 -723 0
-603 -724 0
-603 -725 0
-603 -726 0
-603 -728 0
-603 -729 0
-603 -730 0
-604 -612 0
-604 -613 0
-604 -614 0
-604 -615 0
-604 -616 0
-604 -617 0
-604 -618 0
-604 -619 0
-604 -620 0
-604 -721 0
-604 -722 0
-604 -723 0
-604 -724 0
-604 -725 0
-604 -726 0
-604 -727 0
-604 -729 0
-604 -730 0
-605 -611 0
-605 -612 0
-605 -613 0
-605 -614 0
-605 -615 0
-605 -617 0
-605 -618 0
-605 -620 0
-605 -721 0
-605 -722 0
-605 -724 0
-605 -725 0
-605 -726 0
-605 -727 0
-605 -728 0
-605 -730 0
-606 -611 0
-606 -612 0
-606 -613 0
-606 -614 0
-606 -615 0
-606 -616 0
-606 -618 0
-606 -619 0
-606 -620 0
-606 -721 0
-606 -722 0
-606 -723 0
-606 -725 0
-606 -726 0
-606 -727 0
-606 -728 0
-606 -729 0
-607 -611 0
-607 -612 0
-607 -613 0
-607 -614 0
-607 -615 0
-607 -616 0
-607 -617 0
-607 -619 0
-607 -620 0
-607 -722 0
-607 -723 0
-607 -724 0
-607 -725 0
-607 -726 0
-607 -727 0
-607 -728 0
-607 -729 0
-607 -730 0
-608 -611 0
-608 -613 0
-608 -614 0
-608 -616 0
-608 -617 0
-608 -618 0
-608 -619 0
-608 -620 0
-608 -721 0
-608 -723 0
-608 -724 0
-608 -726 0
-608 -727 0
-608 -728 0
-608 -729 0
-608 -730 0
-609 -611 0
-609 -612 0
-609 -613 0
-609 -614 0
-609 -615 0
-609 -616 0
-609 -617 0
-609 -618 0
-609 -619 0
-609 -721 0
-609 -722 0
-609 -723 0
-609 -725 0
-609 -726 0
-609 -727 0
-609 -728 0
-609 -729 0
-610 -612 0
-610 -613 0
-610 -614 0
-610 -615 0
-610 -616 0
-610 -617 0
-610 -618 0
-610 -619 0
-610 -620 0
-610 -722 0
-610 -723 0
-610 -724 0
-610 -725 0
-610 -726 0
-610 -727 0
-610 -728 0
-610 -729 0
-610 -730 0
-611 -621 0
-611 -623 0
-611 -624 0
-611 -626 0
-611 -627 0
-611 -628 0
-611 -629 0
-611 -630 0
-611 -731 0
-611 -733 0
-611 -734 0
-611 -736 0
-611 -737 0
-611 -738 0
-611 -739 0
-611 -740 0
-612 -621 0
-612 -622 0
-612 -624 0
-612 -625 0
-612 -626 0
-612 -627 0
-612 -628 0
-612 -629 0
-612 -630 0
-612 -731 0
-612 -732 0
-612 -733 0
-612 -734 0
-612 -735 0
-612 -737 0
-612 -738 0
-612 -739 0
-612 -740 0
-613 -621 0
-613 -622 0
-613 -623 0
-613 -625 0
-613 -626 0
-613 -627 0
-613 -628 0
-613 -629 0
-613 -630 0
-613 -731 0
-613 -732 0
-613 -733 0
-613 -734 0
-613 -735 0
-613 -736 0
-613 -738 0
-613 -739 0
-613 -740 0
-614 -622 0
-614 -623 0
-614 -624 0
-614 -625 0
-614 -626 0
-614 -627 0
-614 -628 0
-614 -629 0
-614 -630 0
-614 -731 0
-614 -732 0
-614 -733 0
-614 -734 0
-614 -735 0
-614 -736 0
-614 -737 0
-614 -739 0
-614 -740 0
-615 -621 0
-615 -622 0
-615 -623 0
-615 -624 0
-615 -625 0
-615 -627 0
-615 -628 0
-615 -630 0
-615 -731 0
-615 -732 0
-615 -734 0
-615 -735 0
-615 -736 0
-615 -737 0
-615 -738 0
-615 -740 0
-616 -621 0
-616 -622 0
-616 -623 0
-616 -624 0
-616 -625 0
-616 -626 0
-616 -628 0
-616 -629 0
-616 -630 0
-616 -731 0
-616 -732 0
-616 -733 0
-616 -735 0
-616 -736 0
-616 -737 0
-616 -738 0
-616 -739 0
-617 -621 0
-617 -622 0
-617 -623 0
-617 -624 0
-617 -625 0
-617 -626 0
-617 -627 0
-617 -629 0
-617 -630 0
-617 -732 0
-617 -733 0
-617 -734 0
-617 -735 0
-617 -736 0
-617 -737 0
-617 -738 0
-617 -739 0
-617 -740 0
-618 -621 0
-618 -623 0
-618 -624 0
-618 -626 0
-618 -627 0
-618 -628 0
-618 -629 0
-618 -630 0
-618 -731 0
-618 -733 0
-618 -734 0
-618 -736 0
-618 -737 0
-618 -738 0
-618 -739 0
-618 -740 0
-619 -621 0
-619 -622 0
-619 -623 0
-619 -624 0
-619 -625 0
-619 -626 0
-619 -627 0
-619 -628 0
-619 -629 0
-619 -731 0
-619 -732 0
-619 -733 0
-619 -735 0
-619 -736 0
-619 -737 0
-619 -738 0
-619 -739 0
-620 -622 0
-620 -623 0
-620 -624 0
-620 -625 0
-620 -626 0
-620 -627 0
-620 -628 0
-620 -629 0
-620 -630 0
-620 -732 0
-620 -733 0
-620 -734 0
-620 -735 0
-620 -736 0
-620 -737 0
-620 -738 0
-620 -739 0
-620 -740 0
-621 -631 0
-621 -633 0
-621 -634 0
-621 -636 0
-621 -637 0
-621 -638 0
-621 -639 0
-621 -640 0
-621 -741 0
-621 -743 0
-621 -744 0
-621 -746 0
-621 -747 0
-621 -748 0
-621 -749 0
-621 -750 0
-622 -631 0
-622 -632 0
-622 -634 0
-622 -635 0
-622 -636 0
-622 -637 0
-622 -638 0
-622 -639 0
-622 -640 0
-622 -741 0
-622 -742 0
-622 -743 0
-622 -744 0
-622 -745 0
-622 -747 0
-622 -748 0
-622 -749 0
-622 -750 0
-623 -631 0
-623 -632 0
-623 -633 0
-623 -635 0
-623 -636 0
-623 -637 0
-623 -638 0
-623 -639 0
-623 -640 0
-623 -741 0
-623 -742 0
-623 -743 0
-623 -744 0
-623 -745 0
-623 -746 0
-623 -748 0
-623 -749 0
-623 -750 0
-624 -632 0
-624 -633 0
-624 -634 0
-624 -635 0
-624 -636 0
-624 -637 0
-624 -638 0
-624 -639 0
-624 -640 0
-624 -741 0
-624 -742 0
-624 -743 0
-624 -744 0
-624 -745 0
-624 -746 0
-624 -747 0
-624 -749 0
-624 -750 0
-625 -631 0
-625 -632 0
-625 -633 0
-625 -634 0
-625 -635 0
-625 -637 0
-625 -638 0
-625 -640 0
-625 -741 0
-625 -742 0
-625 -744 0
-625 -745 0
-625 -746 0
-625 -747 0
-625 -748 0
-625 -750 0
-626 -631 0
-626 -632 0
-626 -633 0
-626 -634 0
-626 -635 0
-626 -636 0
-626 -638 0
-626 -639 0
-626 -640 0
-626 -741 0
-626 -742 0
-626 -743 0
-626 -745 0
-626 -746 0
-626 -747 0
-626 -748 0
-626 -749 0
-627 -631 0
-627 -632 0
-627 -633 0
-627 -634 0
-627 -635 0
-627 -636 0
-627 -637 0
-627 -639 0
-627 -640 0
-627 -742 0
-627 -743 0
-627 -744 0
-627 -745 0
-627 -746 0
-627 -747 0
-627 -748 0
-627 -749 0
-627 -750 0
-628 -631 0
-628 -633 0
-628 -634 0
-628 -636 0
-628 -637 0
-628 -638 0
-628 -639 0
-628 -640 0
-628 -741 0
-628 -743 0
-628 -744 0
-628 -746 0
-628 -747 0
-628 -748 0
-628 -749 0
-628 -750 0
-629 -631 0
-629 -632 0
-629 -633 0
-629 -634 0
-629 -635 0
-629 -636 0
-629 -637 0
-629 -638 0
-629 -639 0
-629 -741 0
-629 -742 0
-629 -743 0
-629 -745 0
-629 -746 0
-629 -747 0
-629 -748 0
-629 -749 0
-630 -632 0
-630 -633 0
-630 -634 0
-630 -635 0
-630 -636 0
-630 -637 0
-630 -638 0
-630 -639 0
-630 -640 0
-630 -742 0
-630 -743 0
-630 -744 0
-630 -745 0
-630 -746 0
-630 -747 0
-630 -748 0
-630 -749 0
-630 -750 0
-631 -641 0
-631 -643 0
-631 -644 0
-631 -646 0
-631 -647 0
-631 -648 0
-631 -649 0
-631 -650 0
-631 -751 0
-631 -753 0
-631 -754 0
-631 -756 0
-631 -757 0
-631 -758 0
-631 -759 0
-631 -760 0
-632 -641 0
-632 -642 0
-632 -644 0
-632 -645 0
-632 -646 0
-632 -647 0
-632 -648 0
-632 -649 0
-632 -650 0
-632 -751 0
-632 -752 0
-632 -753 0
-632 -754 0
-632 -755 0
-632 -757 0
-632 -758 0
-632 -759 0
-632 -760 0
-633 -641 0
-633 -642 0
-633 -643 0
-633 -645 0
-633 -646 0
-633 -647 0
-633 -648 0
-633 -649 0
-633 -650 0
-633 -751 0
-633 -752 0
-633 -753 0
-633 -754 0
-633 -755 0
-633 -756 0
-633 -758 0
-633 -759 0
-633 -760 0
-634 -642 0
-634 -643 0
-634 -644 0
-634 -645 0
-634 -646 0
-634 -647 0
-634 -648 0
-634 -649 0
-634 -650 0
-634 -751 0
-634 -752 0
-634 -753 0
-634 -754 0
-634 -755 0
-634 -756 0
-634 -757 0
-634 -759 0
-634 -760 0
-635 -641 0
-635 -642 0
-635 -643 0
-635 -644 0
-635 -645 0
-635 -647 0
-635 -648 0
-635 -650 0
-635 -751 0
-635 -752 0
-635 -754 0
-635 -755 0
-635 -756 0
-635 -757 0
-635 -758 0
-635 -760 0
-636 -641 0
-636 -642 0
-636 -643 0
-636 -644 0
-636 -645 0
-636 -646 0
-636 -648 0
-636 -649 0
-636 -650 0
-636 -751 0
-636 -752 0
-636 -753 0
-636 -755 0
-636 -756 0
-636 -757 0
-636 -758 0
-636 -759 0
-637 -641 0
-637 -642 0
-637 -643 0
-637 -644 0
-637 -645 0
-637 -646 0
-637 -647 0
-637 -649 0
-637 -650 0
-637 -752 0
-637 -753 0
-637 -754 0
-637 -755 0
-637 -756 0
-637 -757 0
-637 -758 0
-637 -759 0
-637 -760 0
-638 -641 0
-638 -643 0
-638 -644 0
-638 -646 0
-638 -647 0
-638 -648 0
-638 -649 0
-638 -650 0
-638 -751 0
-638 -753 0
-638 -754 0
-638 -756 0
-638 -757 0
-638 -758 0
-638 -759 0
-638 -760 0
-639 -641 0
-639 -642 0
-639 -643 0
-639 -644 0
-639 -645 0
-639 -646 0
-639 -647 0
-639 -648 0
-639 -649 0
-639 -751 0
-639 -752 0
-639 -753 0
-639 -755 0
-639 -756 0
-639 -757 0
-639 -758 0
-639 -759 0
-640 -642 0
-640 -643 0
-640 -644 0
-640 -645 0
-640 -646 0
-640 -647 0
-640 -648 0
-640 -649 0
-640 -650 0
-640 -752 0
-640 -753 0
-640 -754 0
-640 -755 0
-640 -756 0
-640 -757 0
-640 -758 0
-640 -759 0
-640 -760 0
-641 -651 0
-641 -653 0
-641 -654 0
-641 -656 0
-641 -657 0
-641 -658 0
-641 -659 0
-641 -660 0
-641 -761 0
-641 -763 0
-641 -764 0
-641 -766 0
-641 -767 0
-641 -768 0
-641 -769 0
-641 -770 0
-642 -651 0
-642 -652 0
-642 -654 0
-642 -655 0
-642 -656 0
-642 -657 0
-642 -658 0
-642 -659 0
-642 -660 0
-642 -761 0
-642 -762 0
-642 -763 0
-642 -764 0
-642 -765 0
-642 -767 0
-642 -768 0
-642 -769 0
-642 -770 0
-643 -651 0
-643 -652 0
-643 -653 0
-643 -655 0
-643 -656 0
-643 -657 0
-643 -658 0
-643 -659 0
-643 -660 0
-643 -761 0
-643 -762 0
-643 -763 0
-643 -764 0
-643 -765 0
-643 -766 0
-643 -768 0
-643 -769 0
-643 -770 0
-644 -652 0
-644 -653 0
-644 -654 0
-644 -655 0
-644 -656 0
-644 -657 0
-644 -658 0
-644 -659 0
-644 -660 0
-644 -761 0
-644 -762 0
-644 -763 0
-644 -764 0
-644 -765 0
-644 -766 0
-644 -767 0
-644 -769 0
-644 -770 0
-645 -651 0
-645 -652 0
-645 -653 0
-645 -654 0
-645 -655 0
-645 -657 0
-645 -658 0
-645 -660 0
-645 -761 0
-645 -762 0
-645 -764 0
-645 -765 0
-645 -766 0
-645 -767 0
-645 -768 0
-645 -770 0
-646 -651 0
-646 -652 0
-646 -653 0
-646 -654 0
-646 -655 0
-646 -656 0
-646 -658 0
-646 -659 0
-646 -660 0
-646 -761 0
-646 -762 0
-646 -763 0
-646 -765 0
-646 -766 0
-646 -767 0
-646 -768 0
-646 -769 0
-647 -651 0
-647 -652 0
-647 -653 0
-647 -654 0
-647 -655 0
-647 -656 0
-647 -657 0
-647 -659 0
-647 -660 0
-647 -762 0
-647 -763 0
-647 -764 0
-647 -765 0
-647 -766 0
-647 -767 0
-647 -768 0
-647 -769 0
-647 -770 0
-648 -651 0
-648 -653 0
-648 -654 0
-648 -656 0
-648 -657 0
-648 -658 0
-648 -659 0
-648 -660 0
-648 -761 0
-648 -763 0
-648 -764 0
-648 -766 0
-648 -767 0
-648 -768 0
-648 -769 0
-648 -770 0
-649 -651 0
-649 -652 0
-649 -653 0
-649 -654 0
-649 -655 0
-649 -656 0
-649 -657 0
-649 -658 0
-649 -659 0
-649 -761 0
-649 -762 0
-649 -763 0
-649 -765 0
-649 -766 0
-649 -767 0
-649 -768 0
-649 -769 0
-650 -652 0
-650 -653 0
-650 -654 0
-650 -655 0
-650 -656 0
-650 -657 0
-650 -658 0
-650 -659 0
-650 -660 0
-650 -762 0
-650 -763 0
-650 -764 0
-650 -765 0
-650 -766 0
-650 -767 0
-650 -768 0
-650 -769 0
-650 -770 0
-651 -661 0
-651 -663 0
-651 -664 0
-651 -666 0
-651 -667 0
-651 -668 0
-651 -669 0
-651 -670 0
-651 -771 0
-651 -773 0
-651 -774 0
-651 -776 0
-651 -777 0
-651 -778 0
-651 -779 0
-651 -780 0
-652 -661 0
-652 -662 0
-652 -664 0
-652 -665 0
-652 -666 0
-652 -667 0
-652 -668 0
-652 -669 0
-652 -670 0
-652 -771 0
-652 -772 0
-652 -773 0
-652 -774 0
-652 -775 0
-652 -777 0
-652 -778 0
-652 -779 0
-652 -780 0
-653 -661 0
-653 -662 0
-653 -663 0
-653 -665 0
-653 -666 0
-653 -667 0
-653 -668 0
-653 -669 0
-653 -670 0
-653 -771 0
-653 -772 0
-653 -773 0
-653 -774 0
-653 -775 0
-653 -776 0
-653 -778 0
-653 -779 0
-653 -780 0
-654 -662 0
-654 -663 0
-654 -664 0
-654 -665 0
-654 -666 0
-654 -667 0
-654 -668 0
-654 -669 0
-654 -670 0
-654 -771 0
-654 -772 0
-654 -773 0
-654 -774 0
-654 -775 0
-654 -776 0
-654 -777 0
-654 -779 0
-654 -780 0
-655 -661 0
-655 -662 0
-655 -663 0
-655 -664 0
-655 -665 0
-655 -667 0
-655 -668 0
-655 -670 0
-655 -771 0
-655 -772 0
-655 -774 0
-655 -775 0
-655 -776 0
-655 -777 0
-655 -778 0
-655 -780 0
-656 -661 0
-656 -662 0
-656 -663 0
-656 -664 0
-656 -665 0
-656 -666 0
-656 -668 0
-656 -669 0
-656 -670 0
-656 -771 0
-656 -772 0
-656 -773 0
-656 -775 0
-656 -776 0
-656 -777 0
-656 -778 0
-656 -779 0
-657 -661 0
-657 -662 0
-657 -663 0
-657 -664 0
-657 -665 0
-657 -666 0
-657 -667 0
-657 -669 0
-657 -670 0
-657 -772 0
-657 -773 0
-657 -774 0
-657 -775 0
-657 -776 0
-657 -777 0
-657 -778 0
-657 -779 0
-657 -780 0
-658 -661 0
-658 -663 0
-658 -664 0
-658 -666 0
-658 -667 0
-658 -668 0
-658 -669 0
-658 -670 0
-658 -771 0
-658 -773 0
-658 -774 0
-658 -776 0
-658 -777 0
-658 -778 0
-658 -779 0
-658 -780 0
-659 -661 0
-659 -662 0
-659 -663 0
-659 -664 0
-659 -665 0
-659 -666 0
-659 -667 0
-659 -668 0
-659 -669 0
-659 -771 0
-659 -772 0
-659 -773 0
-659 -775 0
-659 -776 0
-659 -777 0
-659 -778 0
-659 -779 0
-660 -662 0
-660 -663 0
-660 -664 0
-660 -665 0
-660 -666 0
-660 -667 0
-660 -668 0
-660 -669 0
-660 -670 0
-660 -772 0
-660 -773 0
-660 -774 0
-660 -775 0
-660 -776 0
-660 -777 0
-660 -778 0
-660 -779 0
-660 -780 0
-661 -671 0
-661 -673 0
-661 -674 0
-661 -676 0
-661 -677 0
-661 -678 0
-661 -679 0
-661 -680 0
-661 -781 0
-661 -783 0
-661 -784 0
-661 -786 0
-661 -787 0
-661 -788 0
-661 -789 0
-661 -790 0
-662 -671 0
-662 -672 0
-662 -674 0
-662 -675 0
-662 -676 0
-662 -677 0
-662 -678 0
-662 -679 0
-662 -680 0
-662 -781 0
-662 -782 0
-662 -783 0
-662 -784 0
-662 -785 0
-662 -787 0
-662 -788 0
-662 -789 0
-662 -790 0
-663 -671 0
-663 -672 0
-663 -673 0
-663 -675 0
-663 -676 0
-663 -677 0
-663 -678 0
-663 -679 0
-663 -680 0
-663 -781 0
-663 -782 0
-663 -783 0
-663 -784 0
-663 -785 0
-663 -786 0
-663 -788 0
-663 -789 0
-663 -790 0
-664 -672 0
-664 -673 0
-664 -674 0
-664 -675 0
-664 -676 0
-664 -677 0
-664 -678 0
-664 -679 0
-664 -680 0
-664 -781 0
-664 -782 0
-664 -783 0
-664 -784 0
-664 -785 0
-664 -786 0
-664 -787 0
-664 -789 0
-664 -790 0
-665 -671 0
-665 -672 0
-665 -673 0
-665 -674 0
-665 -675 0
-665 -677 0
-665 -678 0
-665 -680 0
-665 -781 0
-665 -782 0
-665 -784 0
-665 -785 0
-665 -786 0
-665 -787 0
-665 -788 0
-665 -790 0
-666 -671 0
-666 -672 0
-666 -673 0
-666 -674 0
-666 -675 0
-666 -676 0
-666 -678 0
-666 -679 0
-666 -680 0
-666 -781 0
-666 -782 0
-666 -783 0
-666 -785 0
-666 -786 0
-666 -787 0
-666 -788 0
-666 -789 0
-667 -671 0
-667 -672 0
-667 -673 0
-667 -674 0
-667 -675 0
-667 -676 0
-667 -677 0
-667 -679 0
-667 -680 0
-667 -782 0
-667 -783 0
-667 -784 0
-667 -785 0
-667 -786 0
-667 -787 0
-667 -788 0
-667 -789 0
-667 -790 0
-668 -671 0
-668 -673 0
-668 -674 0
-668 -676 0
-668 -677 0
-668 -678 0
-668 -679 0
-668 -680 0
-668 -781 0
-668 -783 0
-668 -784 0
-668 -786 0
-668 -787 0
-668 -788 0
-668 -789 0
-668 -790 0
-669 -671 0
-669 -672 0
-669 -673 0
-669 -674 0
-669 -675 0
-669 -676 0
-669 -677 0
-669 -678 0
-669 -679 0
-669 -781 0
-669 -782 0
-669 -783 0
-669 -785 0
-669 -786 0
-669 -787 0
-669 -788 0
-669 -789 0
-670 -672 0
-670 -673 0
-670 -674 0
-670 -675 0
-670 -676 0
-670 -677 0
-670 -678 0
-670 -679 0
-670 -680 0
-670 -782 0
-670 -783 0
-670 -784 0
-670 -785 0
-670 -786 0
-670 -787 0
-670 -788 0
-670 -789 0
-670 -790 0
-671 -681 0
-671 -683 0
-671 -684 0
-671 -686 0
-671 -687 0
-671 -688 0
-671 -689 0
-671 -690 0
-671 -791 0
-671 -793 0
-671 -794 0
-671 -796 0
-671 -797 0
-671 -798 0
-671 -799 0
-671 -800 0
-672 -681 0
-672 -682 0
-672 -684 0
-672 -685 0
-672 -686 0
-672 -687 0
-672 -688 0
-672 -689 0
-672 -690 0
-672 -791 0
-672 -792 0
-672 -793 0
-672 -794 0
-672 -795 0
-672 -797 0
-672 -798 0
-672 -799 0
-672 -800 0
-673 -681 0
-673 -682 0
-673 -683 0
-673 -685 0
-673 -686 0
-673 -687 0
-673 -688 0
-673 -689 0
-673 -690 0
-673 -791 0
-673 -792 0
-673 -793 0
-673 -794 0
-673 -795 0
-673 -796 0
-673 -798 0
-673 -799 0
-673 -800 0
-674 -682 0
-674 -683 0
-674 -684 0
-674 -685 0
-674 -686 0
-674 -687 0
-674 -688 0
-674 -689 0
-674 -690 0
-674 -791 0
-674 -792 0
-674 -793 0
-674 -794 0
-674 -795 0
-674 -796 0
-674 -797 0
-674 -799 0
-674 -800 0
-675 -681 0
-675 -682 0
-675 -683 0
-675 -684 0
-675 -685 0
-675 -687 0
-675 -688 0
-675 -690 0
-675 -791 0
-675 -792 0
-675 -794 0
-675 -795 0
-675 -796 0
-675 -797 0
-675 -798 0
-675 -800 0
-676 -681 0
-676 -682 0
-676 -683 0
-676 -684 0
-676 -685 0
-676 -686 0
-676 -688 0
-676 -689 0
-676 -690 0
-676 -791 0
-676 -792 0
-676 -793 0
-676 -795 0
-676 -796 0
-676 -797 0
-676 -798 0
-676 -799 0
-677 -681 0
-677 -682 0
-677 -683 0
-677 -684 0
-677 -685 0
-677 -686 0
-677 -687 0
-677 -689 0
-677 -690 0
-677 -792 0
-677 -793 0
-677 -794 0
-677 -795 0
-677 -796 0
-677 -797 0
-677 -798 0
-677 -799 0
-677 -800 0
-678 -681 0
-678 -683 0
-678 -684 0
-678 -686 0
-678 -687 0
-678 -688 0
-678 -689 0
-678 -690 0
-678 -791 0
-678 -793 0
-678 -794 0
-678 -796 0
-678 -797 0
-678 -798 0
-678 -799 0
-678 -800 0
-679 -681 0
-679 -682 0
-679 -683 0
-679 -684 0
-679 -685 0
-679 -686 0
-679 -687 0
-679 -688 0
-679 -689 0
-679 -791 0
-679 -792 0
-679 -793 0
-679 -795 0
-679 -796 0
-679 -797 0
-679 -798 0
-679 -799 0
-680 -682 0
-680 -683 0
-680 -684 0
-680 -685 0
-680 -686 0
-680 -687 0
-680 -688 0
-680 -689 0
-680 -690 0
-680 -792 0
-680 -793 0
-680 -794 0
-680 -795 0
-680 -796 0
-680 -797 0
-680 -798 0
-680 -799 0
-680 -800 0
-681 -691 0
-681 -693 0
-681 -694 0
-681 -696 0
-681 -697 0
-681 -698 0
-681 -699 0
-681 -700 0
-681 -801 0
-681 -803 0
-681 -804 0
-681 -806 0
-681 -807 0
-681 -808 0
-681 -809 0
-681 -810 0
-682 -691 0
-682 -692 0
-682 -694 0
-682 -695 0
-682 -696 0
-682 -697 0
-682 -698 0
-682 -699 0
-682 -700 0
-682 -801 0
-682 -802 0
-682 -803 0
-682 -804 0
-682 -805 0
-682 -807 0
-682 -808 0
-682 -809 0
-682 -810 0
-683 -691 0
-683 -692 0
-683 -693 0
-683 -695 0
-683 -696 0
-683 -697 0
-683 -698 0
-683 -699 0
-683 -700 0
-683 -801 0
-683 -802 0
-683 -803 0
-683 -804 0
-683 -805 0
-683 -806 0
-683 -808 0
-683 -809 0
-683 -810 0
-684 -692 0
-684 -693 0
-684 -694 0
-684 -695 0
-684 -696 0
-684 -697 0
-684 -698 0
-684 -699 0
-684 -700 0
-684 -801 0
-684 -802 0
-684 -803 0
-684 -804 0
-684 -805 0
-684 -806 0
-684 -807 0
-684 -809 0
-684 -810 0
-685 -691 0
-685 -692 0
-685 -693 0
-685 -694 0
-685 -695 0
-685 -697 0
-685 -698 0
-685 -700 0
-685 -801 0
-685 -802 0
-685 -804 0
-685 -805 0
-685 -806 0
-685 -807 0
-685 -808 0
-685 -810 0
-686 -691 0
-686 -692 0
-686 -693 0
-686 -694 0
-686 -695 0
-686 -696 0
-686 -698 0
-686 -699 0
-686 -700 0
-686 -801 0
-686 -802 0
-686 -803 0
-686 -805 0
-686 -806 0
-686 -807 0
-686 -808 0
-686 -809 0
-687 -691 0
-687 -692 0
-687 -693 0
-687 -694 0
-687 -695 0
-687 -696 0
-687 -697 0
-687 -699 0
-687 -700 0
-687 -802 0
-687 -803 0
-687 -804 0
-687 -805 0
-687 -806 0
-687 -807 0
-687 -808 0
-687 -809 0
-687 -810 0
-688 -691 0
-688 -693 0
-688 -694 0
-688 -696 0
-688 -697 0
-688 -698 0
-688 -699 0
-688 -700 0
-688 -801 0
-688 -803 0
-688 -804 0
-688 -806 0
-688 -807 0
-688 -808 0
-688 -809 0
-688 -810 0
-689 -691 0
-689 -692 0
-689 -693 0
-689 -694 0
-689 -695 0
-689 -696 0
-689 -697 0
-689 -698 0
-689 -699 0
-689 -801 0
-689 -802 0
-689 -803 0
-689 -805 0
-689 -806 0
-689 -807 0
-689 -808 0
-689 -809 0
-690 -692 0
-690 -693 0
-690 -694 0
-690 -695 0
-690 -696 0
-690 -697 0
-690 -698 0
-690 -699 0
-690 -700 0
-690 -802 0
-690 -803 0
-690 -804 0
-690 -805 0
-690 -806 0
-690 -807 0
-690 -808 0
-690 -809 0
-690 -810 0
-691 -701 0
-691 -703 0
-691 -704 0
-691 -706 0
-691 -707 0
-691 -708 0
-691 -709 0
-691 -710 0
-691 -811 0
-691 -813 0
-691 -814 0
-691 -816 0
-691 -817 0
-691 -818 0
-691 -819 0
-691 -820 0
-692 -701 0
-692 -702 0
-692 -704 0
-692 -705 0
-692 -706 0
-692 -707 0
-692 -708 0
-692 -709 0
-692 -710 0
-692 -811 0
-692 -812 0
-692 -813 0
-692 -814 0
-692 -815 0
-692 -817 0
-692 -818 0
-692 -819 0
-692 -820 0
-693 -701 0
-693 -702 0
-693 -703 0
-693 -705 0
-693 -706 0
-693 -707 0
-693 -708 0
-693 -709 0
-693 -710 0
-693 -811 0
-693 -812 0
-693 -813 0
-693 -814 0
-693 -815 0
-693 -816 0
-693 -818 0
-693 -819 0
-693 -820 0
-694 -702 0
-694 -703 0
-694 -704 0
-694 -705 0
-694 -706 0
-694 -707 0
-694 -708 0
-694 -709 0
-694 -710 0
-694 -811 0
-694 -812 0
-694 -813 0
-694 -814 0
-694 -815 0
-694 -816 0
-694 -817 0
-694 -819 0
-694 -820 0
-695 -701 0
-695 -702 0
-695 -703 0
-695 -704 0
-695 -705 0
-695 -707 0
-695 -708 0
-695 -710 0
-695 -811 0
-695 -812 0
-695 -814 0
-695 -815 0
-695 -816 0
-695 -817 0
-695 -818 0
-695 -820 0
-696 -701 0
-696 -702 0
-696 -703 0
-696 -704 0
-696 -705 0
-696 -706 0
-696 -708 0
-696 -709 0
-696 -710 0
-696 -811 0
-696 -812 0
-696 -813 0
-696 -815 0
-696 -816 0
-696 -817 0
-696 -818 0
-696 -819 0
-697 -701 0
-697 -702 0
-697 -703 0
-697 -704 0
-697 -705 0
-697 -706 0
-697 -707 0
-697 -709 0
-697 -710 0
-697 -812 0
-697 -813 0
-697 -814 0
-697 -815 0
-697 -816 0
-697 -817 0
-697 -818 0
-697 -819 0
-697 -820 0
-698 -701 0
-698 -703 0
-698 -704 0
-698 -706 0
-698 -707 0
-698 -708 0
-698 -709 0
-698 -710 0
-698 -811 0
-698 -813 0
-698 -814 0
-698 -816 0
-698 -817 0
-698 -818 0
-698 -819 0
-698 -820 0
-699 -701 0
-699 -702 0
-699 -703 0
-699 -704 0
-699 -705 0
-699 -706 0
-699 -707 0
-699 -708 0
-699 -709 0
-699 -811 0
-699 -812 0
-699 -813 0
-699 -815 0
-699 -816 0
-699 -817 0
-699 -818 0
-699 -819 0
-700 -702 0
-700 -703 0
-700 -704 0
-700 -705 0
-700 -706 0
-700 -707 0
-700 -708 0
-700 -709 0
-700 -710 0
-700 -812 0
-700 -813 0
-700 -814 0
-700 -815 0
-700 -816 0
-700 -817 0
-700 -818 0
-700 -819 0
-700 -820 0
-701 -711 0
-701 -713 0
-701 -714 0
-701 -716 0
-701 -717 0
-701 -718 0
-701 -719 0
-701 -720 0
-701 -821 0
-701 -823 0
-701 -824 0
-701 -826 0
-701 -827 0
-701 -828 0
-701 -829 0
-701 -830 0
-702 -711 0
-702 -712 0
-702 -714 0
-702 -715 0
-702 -716 0
-702 -717 0
-702 -718 0
-702 -719 0
-702 -720 0
-702 -821 0
-702 -822 0
-702 -823 0
-702 -824 0
-702 -825 0
-702 -827 0
-702 -828 0
-702 -829 0
-702 -830 0
-703 -711 0
-703 -712 0
-703 -713 0
-703 -715 0
-703 -716 0
-703 -717 0
-703 -718 0
-703 -719 0
-703 -720 0
-703 -821 0
-703 -822 0
-703 -823 0
-703 -824 0
-703 -825 0
-703 -826 0
-703 -828 0
-703 -829 0
-703 -830 0
-704 -712 0
-704 -713 0
-704 -714 0
-704 -715 0
-704 -716 0
-704 -717 0
-704 -718 0
-704 -719 0
-704 -720 0
-704 -821 0
-704 -822 0
-704 -823 0
-704 -824 0
-704 -825 0
-704 -826 0
-704 -827 0
-704 -829 0
-704 -830 0
-705 -711 0
-705 -712 0
-705 -713 0
-705 -714 0
-705 -715 0
-705 -717 0
-705 -718 0
-705 -720 0
-705 -821 0
-705 -822 0
-705 -824 0
-705 -825 0
-705 -826 0
-705 -827 0
-705 -828 0
-705 -830 0
-706 -711 0
-706 -712 0
-706 -713 0
-706 -714 0
-706 -715 0
-706 -716 0
-706 -718 0
-706 -719 0
-706 -720 0
-706 -821 0
-706 -822 0
-706 -823 0
-706 -825 0
-706 -826 0
-706 -827 0
-706 -828 0
-706 -829 0
-707 -711 0
-707 -712 0
-707 -713 0
-707 -714 0
-707 -715 0
-707 -716 0
-707 -717 0
-707 -719 0
-707 -720 0
-707 -822 0
-707 -823 0
-707 -824 0
-707 -825 0
-707 -826 0
-707 -827 0
-707 -828 0
-707 -829 0
-707 -830 0
-708 -711 0
-708 -713 0
-708 -714 0
-708 -716 0
-708 -717 0
-708 -718 0
-708 -719 0
-708 -720 0
-708 -821 0
-708 -823 0
-708 -824 0
-708 -826 0
-708 -827 0
-708 -828 0
-708 -829 0
-708 -830 0
-709 -711 0
-709 -712 0
-709 -713 0
-709 -714 0
-709 -715 0
-709 -716 0
-709 -717 0
-709 -718 0
-709 -719 0
-709 -821 0
-709 -822 0
-709 -823 0
-709 -825 0
-709 -826 0
-709 -827 0
-709 -828 0
-709 -829 0
-710 -712 0
-710 -713 0
-710 -714 0
-710 -715 0
-710 -716 0
-710 -717 0
-710 -718 0
-710 -719 0
-710 -720 0
-710 -822 0
-710 -823 0
-710 -824 0
-710 -825 0
-710 -826 0
-710 -827 0
-710 -828 0
-710 -829 0
-710 -830 0
-711 -831 0
-711 -833 0
-711 -834 0
-711 -836 0
-711 -837 0
-711 -838 0
-711 -839 0
-711 -840 0
-712 -831 0
-712 -832 0
-712 -833 0
-712 -834 0
-712 -835 0
-712 -837 0
-712 -838 0
-712 -839 0
-712 -840 0
-713 -831 0
-713 -832 0
-713 -833 0
-713 -834 0
-713 -835 0
-713 -836 0
-713 -838 0
-713 -839 0
-713 -840 0
-714 -831 0
-714 -832 0
-714 -833 0
-714 -834 0
-714 -835 0
-714 -836 0
-714 -837 0
-714 -839 0
-714 -840 0
-715 -831 0
-715 -832 0
-715 -834 0
-715 -835 0
-715 -836 0
-715 -837 0
-715 -838 0
-715 -840 0
-716 -831 0
-716 -832 0
-716 -833 0
-716 -835 0
-716 -836 0
-716 -837 0
-716 -838 0
-716 -839 0
-717 -832 0
-717 -833 0
-717 -834 0
-717 -835 0
-717 -836 0
-717 -837 0
-717 -838 0
-717 -839 0
-717 -840 0
-718 -831 0
-718 -833 0
-718 -834 0
-718 -836 0
-718 -837 0
-718 -838 0
-718 -839 0
-718 -840 0
-719 -831 0
-719 -832 0
-719 -833 0
-719 -835 0
-719 -836 0
-719 -837 0
-719 -838 0
-719 -839 0
-720 -832 0
-720 -833 0
-720 -834 0
-720 -835 0
-720 -836 0
-720 -837 0
-720 -838 0
-720 -839 0
-720 -840 0
-721 -731 0
-721 -733 0
-721 -734 0
-721 -736 0
-721 -737 0
-721 -738 0
-721 -739 0
-721 -740 0
-721 -841 0
-721 -843 0
-721 -844 0
-721 -846 0
-721 -847 0
-721 -848 0
-721 -849 0
-721 -850 0
-722 -731 0
-722 -732 0
-722 -734 0
-722 -735 0
-722 -736 0
-722 -737 0
-722 -738 0
-722 -739 0
-722 -740 0
-722 -841 0
-722 -842 0
-722 -843 0
-722 -844 0
-722 -845 0
-722 -847 0
-722 -848 0
-722 -849 0
-722 -850 0
-723 -731 0
-723 -732 0
-723 -733 0
-723 -735 0
-723 -736 0
-723 -737 0
-723 -738 0
-723 -739 0
-723 -740 0
-723 -841 0
-723 -842 0
-723 -843 0
-723 -844 0
-723 -845 0
-723 -846 0
-723 -848 0
-723 -849 0
-723 -850 0
-724 -732 0
-724 -733 0
-724 -734 0
-724 -735 0
-724 -736 0
-724 -737 0
-724 -738 0
-724 -739 0
-724 -740 0
-724 -841 0
-724 -842 0
-724 -843 0
-724 -844 0
-724 -845 0
-724 -846 0
-724 -847 0
-724 -849 0
-724 -850 0
-725 -731 0
-725 -732 0
-725 -733 0
-725 -734 0
-725 -735 0
-725 -737 0
-725 -738 0
-725 -740 0
-725 -841 0
-725 -842 0
-725 -844 0
-725 -845 0
-725 -846 0
-725 -847 0
-725 -848 0
-725 -850 0
-726 -731 0
-726 -732 0
-726 -733 0
-726 -734 0
-726 -735 0
-726 -736 0
-726 -738 0
-726 -739 0
-726 -740 0
-726 -841 0
-726 -842 0
-726 -843 0
-726 -845 0
-726 -846 0
-726 -847 0
-726 -848 0
-726 -849 0
-727 -731 0
-727 -732 0
-727 -733 0
-727 -734 0
-727 -735 0
-727 -736 0
-727 -737 0
-727 -739 0
-727 -740 0
-727 -842 0
-727 -843 0
-727 -844 0
-727 -845 0
-727 -846 0
-727 -847 0
-727 -848 0
-727 -849 0
-727 -850 0
-728 -731 0
-728 -733 0
-728 -734 0
-728 -736 0
-728 -737 0
-728 -738 0
-728 -739 0
-728 -740 0
-728 -841 0
-728 -843 0
-728 -844 0
-728 -846 0
-728 -847 0
-728 -848 0
-728 -849 0
-728 -850 0
-729 -731 0
-729 -732 0
-729 -733 0
-729 -734 0
-729 -735 0
-729 -736 0
-729 -737 0
-729 -738 0
-729 -739 0
-729 -841 0
-729 -842 0
-729 -843 0
-729 -845 0
-729 -846 0
-729 -847 0
-729 -848 0
-729 -849 0
-730 -732 0
-730 -733 0
-730 -734 0
-730 -735 0
-730 -736 0
-730 -737 0
-730 -738 0
-730 -739 0
-730 -740 0
-730 -842 0
-730 -843 0
-730 -844 0
-730 -845 0
-730 -846 0
-730 -847 0
-730 -848 0
-730 -849 0
-730 -850 0
-731 -741 0
-731 -743 0
-731 -744 0
-731 -746 0
-731 -747 0
-731 -748 0
-731 -749 0
-731 -750 0
-731 -851 0
-731 -853 0
-731 -854 0
-731 -856 0
-731 -857 0
-731 -858 0
-731 -859 0
-731 -860 0
-732 -741 0
-732 -742 0
-732 -744 0
-732 -745 0
-732 -746 0
-732 -747 0
-732 -748 0
-732 -749 0
-732 -750 0
-732 -851 0
-732 -852 0
-732 -853 0
-732 -854 0
-732 -855 0
-732 -857 0
-732 -858 0
-732 -859 0
-732 -860 0
-733 -741 0
-733 -742 0
-733 -743 0
-733 -745 0
-733 -746 0
-733 -747 0
-733 -748 0
-733 -749 0
-733 -750 0
-733 -851 0
-733 -852 0
-733 -853 0
-733 -854 0
-733 -855 0
-733 -856 0
-733 -858 0
-733 -859 0
-733 -860 0
-734 -742 0
-734 -743 0
-734 -744 0
-734 -745 0
-734 -746 0
-734 -747 0
-734 -748 0
-734 -749 0
-734 -750 0
-734 -851 0
-734 -852 0
-734 -853 0
-734 -854 0
-734 -855 0
-734 -856 0
-734 -857 0
-734 -859 0
-734 -860 0
-735 -741 0
-735 -742 0
-735 -743 0
-735 -744 0
-735 -745 0
-735 -747 0
-735 -748 0
-735 -750 0
-735 -851 0
-735 -852 0
-735 -854 0
-735 -855 0
-735 -856 0
-735 -857 0
-735 -858 0
-735 -860 0
-736 -741 0
-736 -742 0
-736 -743 0
-736 -744 0
-736 -745 0
-736 -746 0
-736 -748 0
-736 -749 0
-736 -750 0
-736 -851 0
-736 -852 0
-736 -853 0
-736 -855 0
-736 -856 0
-736 -857 0
-736 -858 0
-736 -859 0
-737 -741 0
-737 -742 0
-737 -743 0
-737 -744 0
-737 -745 0
-737 -746 0
-737 -747 0
-737 -749 0
-737 -750 0
-737 -852 0
-737 -853 0
-737 -854 0
-737 -855 0
-737 -856 0
-737 -857 0
-737 -858 0
-737 -859 0
-737 -860 0
-738 -741 0
-738 -743 0
-738 -744 0
-738 -746 0
-738 -747 0
-738 -748 0
-738 -749 0
-738 -750 0
-738 -851 0
-738 -853 0
-738 -854 0
-738 -856 0
-738 -857 0
-738 -858 0
-738 -859 0
-738 -860 0
-739 -741 0
-739 -742 0
-739 -743 0
-739 -744 0
-739 -745 0
-739 -746 0
-739 -747 0
-739 -748 0
-739 -749 0
-739 -851 0
-739 -852 0
-739 -853 0
-739 -855 0
-739 -856 0
-739 -857 0
-739 -858 0
-739 -859 0
-740 -742 0
-740 -743 0
-740 -744 0
-740 -745 0
-740 -746 0
-740 -747 0
-740 -748 0
-740 -749 0
-740 -750 0
-740 -852 0
-740 -853 0
-740 -854 0
-740 -855 0
-740 -856 0
-740 -857 0
-740 -858 0
-740 -859 0
-740 -860 0
-741 -751 0
-741 -753 0
-741 -754 0
-741 -756 0
-741 -757 0
-741 -758 0
-741 -759 0
-741 -760 0
-741 -861 0
-741 -863 0
-741 -864 0
-741 -866 0
-741 -867 0
-741 -868 0
-741 -869 0
-741 -870 0
-742 -751 0
-742 -752 0
-742 -754 0
-742 -755 0
-742 -756 0
-742 -757 0
-742 -758 0
-742 -759 0
-742 -760 0
-742 -861 0
-742 -862 0
-742 -863 0
-742 -864 0
-742 -865 0
-742 -867 0
-742 -868 0
-742 -869 0
-742 -870 0
-743 -751 0
-743 -752 0
-743 -753 0
-743 -755 0
-743 -756 0
-743 -757 0
-743 -758 0
-743 -759 0
-743 -760 0
-743 -861 0
-743 -862 0
-743 -863 0
-743 -864 0
-743 -865 0
-743 -866 0
-743 -868 0
-743 -869 0
-743 -870 0
-744 -752 0
-744 -753 0
-744 -754 0
-744 -755 0
-744 -756 0
-744 -757 0
-744 -758 0
-744 -759 0
-744 -760 0
-744 -861 0
-744 -862 0
-744 -863 0
-744 -864 0
-744 -865 0
-744 -866 0
-744 -867 0
-744 -869 0
-744 -870 0
-745 -751 0
-745 -752 0
-745 -753 0
-745 -754 0
-745 -755 0
-745 -757 0
-745 -758 0
-745 -760 0
-745 -861 0
-745 -862 0
-745 -864 0
-745 -865 0
-745 -866 0
-745 -867 0
-745 -868 0
-745 -870 0
-746 -751 0
-746 -752 0
-746 -753 0
-746 -754 0
-746 -755 0
-746 -756 0
-746 -758 0
-746 -759 0
-746 -760 0
-746 -861 0
-746 -862 0
-746 -863 0
-746 -865 0
-746 -866 0
-746 -867 0
-746 -868 0
-746 -869 0
-747 -751 0
-747 -752 0
-747 -753 0
-747 -754 0
-747 -755 0
-747 -756 0
-747 -757 0
-747 -759 0
-747 -760 0
-747 -862 0
-747 -863 0
-747 -864 0
-747 -865 0
-747 -866 0
-747 -867 0
-747 -868 0
-747 -869 0
-747 -870 0
-748 -751 0
-748 -753 0
-748 -754 0
-748 -756 0
-748 -757 0
-748 -758 0
-748 -759 0
-748 -760 0
-748 -861 0
-748 -863 0
-748 -864 0
-748 -866 0
-748 -867 0
-748 -868 0
-748 -869 0
-748 -870 0
-749 -751 0
-749 -752 0
-749 -753 0
-749 -754 0
-749 -755 0
-749 -756 0
-749 -757 0
-749 -758 0
-749 -759 0
-749 -861 0
-749 -862 0
-749 -863 0
-749 -865 0
-749 -866 0
-749 -867 0
-749 -868 0
-749 -869 0
-750 -752 0
-750 -753 0
-750 -754 0
-750 -755 0
-750 -756 0
-750 -757 0
-750 -758 0
-750 -759 0
-750 -760 0
-750 -862 0
-750 -863 0
-750 -864 0
-750 -865 0
-750 -866 0
-750 -867 0
-750 -868 0
-750 -869 0
-750 -870 0
-751 -761 0
-751 -763 0
-751 -764 0
-751 -766 0
-751 -767 0
-751 -768 0
-751 -769 0
-751 -770 0
-751 -871 0
-751 -873 0
-751 -874 0
-751 -876 0
-751 -877 0
-751 -878 0
-751 -879 0
-751 -880 0
-752 -761 0
-752 -762 0
-752 -764 0
-752 -765 0
-752 -766 0
-752 -767 0
-752 -768 0
-752 -769 0
-752 -770 0
-752 -871 0
-752 -872 0
-752 -873 0
-752 -874 0
-752 -875 0
-752 -877 0
-752 -878 0
-752 -879 0
-752 -880 0
-753 -761 0
-753 -762 0
-753 -763 0
-753 -765 0
-753 -766 0
-753 -767 0
-753 -768 0
-753 -769 0
-753 -770 0
-753 -871 0
-753 -872 0
-753 -873 0
-753 -874 0
-753 -875 0
-753 -876 0
-753 -878 0
-753 -879 0
-753 -880 0
-754 -762 0
-754 -763 0
-754 -764 0
-754 -765 0
-754 -766 0
-754 -767 0
-754 -768 0
-754 -769 0
-754 -770 0
-754 -871 0
-754 -872 0
-754 -873 0
-754 -874 0
-754 -875 0
-754 -876 0
-754 -877 0
-754 -879 0
-754 -880 0
-755 -761 0
-755 -762 0
-755 -763 0
-755 -764 0
-755 -765 0
-755 -767 0
-755 -768 0
-755 -770 0
-755 -871 0
-755 -872 0
-755 -874 0
-755 -875 0
-755 -876 0
-755 -877 0
-755 -878 0
-755 -880 0
-756 -761 0
-756 -762 0
-756 -763 0
-756 -764 0
-756 -765 0
-756 -766 0
-756 -768 0
-756 -769 0
-756 -770 0
-756 -871 0
-756 -872 0
-756 -873 0
-756 -875 0
-756 -876 0
-756 -877 0
-756 -878 0
-756 -879 0
-757 -761 0
-757 -762 0
-757 -763 0
-757 -764 0
-757 -765 0
-757 -766 0
-757 -767 0
-757 -769 0
-757 -770 0
-757 -872 0
-757 -873 0
-757 -874 0
-757 -875 0
-757 -876 0
-757 -877 0
-757 -878 0
-757 -879 0
-757 -880 0
-758 -761 0
-758 -763 0
-758 -764 0
-758 -766 0
-758 -767 0
-758 -768 0
-758 -769 0
-758 -770 0
-758 -871 0
-758 -873 0
-758 -874 0
-758 -876 0
-758 -877 0
-758 -878 0
-758 -879 0
-758 -880 0
-759 -761 0
-759 -762 0
-759 -763 0
-759 -764 0
-759 -765 0
-759 -766 0
-759 -767 0
-759 -768 0
-759 -769 0
-759 -871 0
-759 -872 0
-759 -873 0
-759 -875 0
-759 -876 0
-759 -877 0
-759 -878 0
-759 -879 0
-760 -762 0
-760 -763 0
-760 -764 0
-760 -765 0
-760 -766 0
-760 -767 0
-760 -768 0
-760 -769 0
-760 -770 0
-760 -872 0
-760 -873 0
-760 -874 0
-760 -875 0
-760 -876 0
-760 -877 0
-760 -878 0
-760 -879 0
-760 -880 0
-761 -771 0
-761 -773 0
-761 -774 0
-761 -776 0
-761 -777 0
-761 -778 0
-761 -779 0
-761 -780 0
-761 -881 0
-761 -883 0
-761 -884 0
-761 -886 0
-761 -887 0
-761 -888 0
-761 -889 0
-761 -890 0
-762 -771 0
-762 -772 0
-762 -774 0
-762 -775 0
-762 -776 0
-762 -777 0
-762 -778 0
-762 -779 0
-762 -780 0
-762 -881 0
-762 -882 0
-762 -883 0
-762 -884 0
-762 -885 0
-762 -887 0
-762 -888 0
-762 -889 0
-762 -890 0
-763 -771 0
-763 -772 0
-763 -773 0
-763 -775 0
-763 -776 0
-763 -777 0
-763 -778 0
-763 -779 0
-763 -780 0
-763 -881 0
-763 -882 0
-763 -883 0
-763 -884 0
-763 -885 0
-763 -886 0
-763 -888 0
-763 -889 0
-763 -890 0
-764 -772 0
-764 -773 0
-764 -774 0
-764 -775 0
-764 -776 0
-764 -777 0
-764 -778 0
-764 -779 0
-764 -780 0
-764 -881 0
-764 -882 0
-764 -883 0
-764 -884 0
-764 -885 0
-764 -886 0
-764 -887 0
-764 -889 0
-764 -890 0
-765 -771 0
-765 -772 0
-765 -773 0
-765 -774 0
-765 -775 0
-765 -777 0
-765 -778 0
-765 -780 0
-765 -881 0
-765 -882 0
-765 -884 0
-765 -885 0
-765 -886 0
-765 -887 0
-765 -888 0
-765 -890 0
-766 -771 0
-766 -772 0
-766 -773 0
-766 -774 0
-766 -775 0
-766 -776 0
-766 -778 0
-766 -779 0
-766 -780 0
-766 -881 0
-766 -882 0
-766 -883 0
-766 -885 0
-766 -886 0
-766 -887 0
-766 -888 0
-766 -889 0
-767 -771 0
-767 -772 0
-767 -773 0
-767 -774 0
-767 -775 0
-767 -776 0
-767 -777 0
-767 -779 0
-767 -780 0
-767 -882 0
-767 -883 0
-767 -884 0
-767 -885 0
-767 -886 0
-767 -887 0
-767 -888 0
-767 -889 0
-767 -890 0
-768 -771 0
-768 -773 0
-768 -774 0
-768 -776 0
-768 -777 0
-768 -778 0
-768 -779 0
-768 -780 0
-768 -881 0
-768 -883 0
-768 -884 0
-768 -886 0
-768 -887 0
-768 -888 0
-768 -889 0
-768 -890 0
-769 -771 0
-769 -772 0
-769 -773 0
-769 -774 0
-769 -775 0
-769 -776 0
-769 -777 0
-769 -778 0
-769 -779 0
-769 -881 0
-769 -882 0
-769 -883 0
-769 -885 0
-769 -886 0
-769 -887 0
-769 -888 0
-769 -889 0
-770 -772 0
-770 -773 0
-770 -774 0
-770 -775 0
-770 -776 0
-770 -777 0
-770 -778 0
-770 -779 0
-770 -780 0
-770 -882 0
-770 -883 0
-770 -884 0
-770 -885 0
-770 -886 0
-770 -887 0
-770 -888 0
-770 -889 0
-770 -890 0
-771 -781 0
-771 -783 0
-771 -784 0
-771 -786 0
-771 -787 0
-771 -788 0
-771 -789 0
-771 -790 0
-771 -891 0
-771 -893 0
-771 -894 0
-771 -896 0
-771 -897 0
-771 -898 0
-771 -899 0
-771 -900 0
-772 -781 0
-772 -782 0
-772 -784 0
-772 -785 0
-772 -786 0
-772 -787 0
-772 -788 0
-772 -789 0
-772 -790 0
-772 -891 0
-772 -892 0
-772 -893 0
-772 -894 0
-772 -895 0
-772 -897 0
-772 -898 0
-772 -899 0
-772 -900 0
-773 -781 0
-773 -782 0
-773 -783 0
-773 -785 0
-773 -786 0
-773 -787 0
-773 -788 0
-773 -789 0
-773 -790 0
-773 -891 0
-773 -892 0
-773 -893 0
-773 -894 0
-773 -895 0
-773 -896 0
-773 -898 0
-773 -899 0
-773 -900 0
-774 -782 0
-774 -783 0
-774 -784 0
-774 -785 0
-774 -786 0
-774 -787 0
-774 -788 0
-774 -789 0
-774 -790 0
-774 -891 0
-774 -892 0
-774 -893 0
-774 -894 0
-774 -895 0
-774 -896 0
-774 -897 0
-774 -899 0
-774 -900 0
-775 -781 0
-775 -782 0
-775 -783 0
-775 -784 0
-775 -785 0
-775 -787 0
-775 -788 0
-775 -790 0
-775 -891 0
-775 -892 0
-775 -894 0
-775 -895 0
-775 -896 0
-775 -897 0
-775 -898 0
-775 -900 0
-776 -781 0
-776 -782 0
-776 -783 0
-776 -784 0
-776 -785 0
-776 -786 0
-776 -788 0
-776 -789 0
-776 -790 0
-776 -891 0
-776 -892 0
-776 -893 0
-776 -895 0
-776 -896 0
-776 -897 0
-776 -898 0
-776 -899 0
-777 -781 0
-777 -782 0
-777 -783 0
-777 -784 0
-777 -785 0
-777 -786 0
-777 -787 0
-777 -789 0
-777 -790 0
-777 -892 0
-777 -893 0
-777 -894 0
-777 -895 0
-777 -896 0
-777 -897 0
-777 -898 0
-777 -899 0
-777 -900 0
-778 -781 0
-778 -783 0
-778 -784 0
-778 -786 0
-778 -787 0
-778 -788 0
-778 -789 0
-778 -790 0
-778 -891 0
-778 -893 0
-778 -894 0
-778 -896 0
-778 -897 0
-778 -898 0
-778 -899 0
-778 -900 0
-779 -781 0
-779 -782 0
-779 -783 0
-779 -784 0
-779 -785 0
-779 -786 0
-779 -787 0
-779 -788 0
-779 -789 0
-779 -891 0
-779 -892 0
-779 -893 0
-779 -895 0
-779 -896 0
-779 -897 0
-779 -898 0
-779 -899 0
-780 -782 0
-780 -783 0
-780 -784 0
-780 -785 0
-780 -786 0
-780 -787 0
-780 -788 0
-780 -789 0
-780 -790 0
-780 -892 0
-780 -893 0
-780 -894 0
-780 -895 0
-780 -896 0
-780 -897 0
-780 -898 0
-780 -899 0
-780 -900 0
-781 -791 0
-781 -793 0
-781 -794 0
-781 -796 0
-781 -797 0
-781 -798 0
-781 -799 0
-781 -800 0
-781 -901 0
-781 -903 0
-781 -904 0
-781 -906 0
-781 -907 0
-781 -908 0
-781 -909 0
-781 -910 0
-782 -791 0
-782 -792 0
-782 -794 0
-782 -795 0
-782 -796 0
-782 -797 0
-782 -798 0
-782 -799 0
-782 -800 0
-782 -901 0
-782 -902 0
-782 -903 0
-782 -904 0
-782 -905 0
-782 -907 0
-782 -908 0
-782 -909 0
-782 -910 0
-783 -791 0
-783 -792 0
-783 -793 0
-783 -795 0
-783 -796 0
-783 -797 0
-783 -798 0
-783 -799 0
-783 -800 0
-783 -901 0
-783 -902 0
-783 -903 0
-783 -904 0
-783 -905 0
-783 -906 0
-783 -908 0
-783 -909 0
-783 -910 0
-784 -792 0
-784 -793 0
-784 -794 0
-784 -795 0
-784 -796 0
-784 -797 0
-784 -798 0
-784 -799 0
-784 -800 0
-784 -901 0
-784 -902 0
-784 -903 0
-784 -904 0
-784 -905 0
-784 -906 0
-784 -907 0
-784 -909 0
-784 -910 0
-785 -791 0
-785 -792 0
-785 -793 0
-785 -794 0
-785 -795 0
-785 -797 0
-785 -798 0
-785 -800 0
-785 -901 0
-785 -902 0
-785 -904 0
-785 -905 0
-785 -906 0
-785 -907 0
-785 -908 0
-785 -910 0
-786 -791 0
-786 -792 0
-786 -793 0
-786 -794 0
-786 -795 0
-786 -796 0
-786 -798 0
-786 -799 0
-786 -800 0
-786 -901 0
-786 -902 0
-786 -903 0
-786 -905 0
-786 -906 0
-786 -907 0
-786 -908 0
-786 -909 0
-787 -791 0
-787 -792 0
-787 -793 0
-787 -794 0
-787 -795 0
-787 -796 0
-787 -797 0
-787 -799 0
-787 -800 0
-787 -902 0
-787 -903 0
-787 -904 0
-787 -905 0
-787 -906 0
-787 -907 0
-787 -908 0
-787 -909 0
-787 -910 0
-788 -791 0
-788 -793 0
-788 -794 0
-788 -796 0
-788 -797 0
-788 -798 0
-788 -799 0
-788 -800 0
-788 -901 0
-788 -903 0
-788 -904 0
-788 -906 0
-788 -907 0
-788 -908 0
-788 -909 0
-788 -910 0
-789 -791 0
-789 -792 0
-789 -793 0
-789 -794 0
-789 -795 0
-789 -796 0
-789 -797 0
-789 -798 0
-789 -799 0
-789 -901 0
-789 -902 0
-789 -903 0
-789 -905 0
-789 -906 0
-789 -907 0
-789 -908 0
-789 -909 0
-790 -792 0
-790 -793 0
-790 -794 0
-790 -795 0
-790 -796 0
-790 -797 0
-790 -798 0
-790 -799 0
-790 -800 0
-790 -902 0
-790 -903 0
-790 -904 0
-790 -905 0
-790 -906 0
-790 -907 0
-790 -908 0
-790 -909 0
-790 -910 0
-791 -801 0
-791 -803 0
-791 -804 0
-791 -806 0
-791 -807 0
-791 -808 0
-791 -809 0
-791 -810 0
-791 -911 0
-791 -913 0
-791 -914 0
-791 -916 0
-791 -917 0
-791 -918 0
-791 -919 0
-791 -920 0
-792 -801 0
-792 -802 0
-792 -804 0
-792 -805 0
-792 -806 0
-792 -807 0
-792 -808 0
-792 -809 0
-792 -810 0
-792 -911 0
-792 -912 0
-792 -913 0
-792 -914 0
-792 -915 0
-792 -917 0
-792 -918 0
-792 -919 0
-792 -920 0
-793 -801 0
-793 -802 0
-793 -803 0
-793 -805 0
-793 -806 0
-793 -807 0
-793 -808 0
-793 -809 0
-793 -810 0
-793 -911 0
-793 -912 0
-793 -913 0
-793 -914 0
-793 -915 0
-793 -916 0
-793 -918 0
-793 -919 0
-793 -920 0
-794 -802 0
-794 -803 0
-794 -804 0
-794 -805 0
-794 -806 0
-794 -807 0
-794 -808 0
-794 -809 0
-794 -810 0
-794 -911 0
-794 -912 0
-794 -913 0
-794 -914 0
-794 -915 0
-794 -916 0
-794 -917 0
-794 -919 0
-794 -920 0
-795 -801 0
-795 -802 0
-795 -803 0
-795 -804 0
-795 -805 0
-795 -807 0
-795 -808 0
-795 -810 0
-795 -911 0
-795 -912 0
-795 -914 0
-795 -915 0
-795 -916 0
-795 -917 0
-795 -918 0
-795 -920 0
-796 -801 0
-796 -802 0
-796 -803 0
-796 -804 0
-796 -805 0
-796 -806 0
-796 -808 0
-796 -809 0
-796 -810 0
-796 -911 0
-796 -912 0
-796 -913 0
-796 -915 0
-796 -916 0
-796 -917 0
-796 -918 0
-796 -919 0
-797 -801 0
-797 -802 0
-797 -803 0
-797 -804 0
-797 -805 0
-797 -806 0
-797 -807 0
-797 -809 0
-797 -810 0
-797 -912 0
-797 -913 0
-797 -914 0
-797 -915 0
-797 -916 0
-797 -917 0
-797 -918 0
-797 -919 0
-797 -920 0
-798 -801 0
-798 -803 0
-798 -804 0
-798 -806 0
-798 -807 0
-798 -808 0
-798 -809 0
-798 -810 0
-798 -911 0
-798 -913 0
-798 -914 0
-798 -916 0
-798 -917 0
-798 -918 0
-798 -919 0
-798 -920 0
-799 -801 0
-799 -802 0
-799 -803 0
-799 -804 0
-799 -805 0
-799 -806 0
-799 -807 0
-799 -808 0
-799 -809 0
-799 -911 0
-799 -912 0
-799 -913 0
-799 -915 0
-799 -916 0
-799 -917 0
-799 -918 0
-799 -919 0
-800 -802 0
-800 -803 0
-800 -804 0
-800 -805 0
-800 -806 0
-800 -807 0
-800 -808 0
-800 -809 0
-800 -810 0
-800 -912 0
-800 -913 0
-800 -914 0
-800 -915 0
-800 -916 0
-800 -917 0
-800 -918 0
-800 -919 0
-800 -920 0
-801 -811 0
-801 -813 0
-801 -814 0
-801 -816 0
-801 -817 0
-801 -818 0
-801 -819 0
-801 -820 0
-801 -921 0
-801 -923 0
-801 -924 0
-801 -926 0
-801 -927 0
-801 -928 0
-801 -929 0
-801 -930 0
-802 -811 0
-802 -812 0
-802 -814 0
-802 -815 0
-802 -816 0
-802 -817 0
-802 -818 0
-802 -819 0
-802 -820 0
-802 -921 0
-802 -922 0
-802 -923 0
-802 -924 0
-802 -925 0
-802 -927 0
-802 -928 0
-802 -929 0
-802 -930 0
-803 -811 0
-803 -812 0
-803 -813 0
-803 -815 0
-803 -816 0
-803 -817 0
-803 -818 0
-803 -819 0
-803 -820 0
-803 -921 0
-803 -922 0
-803 -923 0
-803 -924 0
-803 -925 0
-803 -926 0
-803 -928 0
-803 -929 0
-803 -930 0
-804 -812 0
-804 -813 0
-804 -814 0
-804 -815 0
-804 -816 0
-804 -817 0
-804 -818 0
-804 -819 0
-804 -820 0
-804 -921 0
-804 -922 0
-804 -923 0
-804 -924 0
-804 -925 0
-804 -926 0
-804 -927 0
-804 -929 0
-804 -930 0
-805 -811 0
-805 -812 0
-805 -813 0
-805 -814 0
-805 -815 0
-805 -817 0
-805 -818 0
-805 -820 0
-805 -921 0
-805 -922 0
-805 -924 0
-805 -925 0
-805 -926 0
-805 -927 0
-805 -928 0
-805 -930 0
-806 -811 0
-806 -812 0
-806 -813 0
-806 -814 0
-806 -815 0
-806 -816 0
-806 -818 0
-806 -819 0
-806 -820 0
-806 -921 0
-806 -922 0
-806 -923 0
-806 -925 0
-806 -926 0
-806 -927 0
-806 -928 0
-806 -929 0
-807 -811 0
-807 -812 0
-807 -813 0
-807 -814 0
-807 -815 0
-807 -816 0
-807 -817 0
-807 -819 0
-807 -820 0
-807 -922 0
-807 -923 0
-807 -924 0
-807 -925 0
-807 -926 0
-807 -927 0
-807 -928 0
-807 -929 0
-807 -930 0
-808 -811 0
-808 -813 0
-808 -814 0
-808 -816 0
-808 -817 0
-808 -818 0
-808 -819 0
-808 -820 0
-808 -921 0
-808 -923 0
-808 -924 0
-808 -926 0
-808 -927 0
-808 -928 0
-808 -929 0
-808 -930 0
-809 -811 0
-809 -812 0
-809 -813 0
-809 -814 0
-809 -815 0
-809 -816 0
-809 -817 0
-809 -818 0
-809 -819 0
-809 -921 0
-809 -922 0
-809 -923 0
-809 -925 0
-809 -926 0
-809 -927 0
-809 -928 0
-809 -929 0
-810 -812 0
-810 -813 0
-810 -814 0
-810 -815 0
-810 -816 0
-810 -817 0
-810 -818 0
-810 -819 0
-810 -820 0
-810 -922 0
-810 -923 0
-810 -924 0
-810 -925 0
-810 -926 0
-810 -927 0
-810 -928 0
-810 -929 0
-810 -930 0
-811 -821 0
-811 -823 0
-811 -824 0
-811 -826 0
-811 -827 0
-811 -828 0
-811 -829 0
-811 -830 0
-811 -931 0
-811 -933 0
-811 -934 0
-811 -936 0
-811 -937 0
-811 -938 0
-811 -939 0
-811 -940 0
-812 -821 0
-812 -822 0
-812 -824 0
-812 -825 0
-812 -826 0
-812 -827 0
-812 -828 0
-812 -829 0
-812 -830 0
-812 -931 0
-812 -932 0
-812 -933 0
-812 -934 0
-812 -935 0
-812 -937 0
-812 -938 0
-812 -939 0
-812 -940 0
-813 -821 0
-813 -822 0
-813 -823 0
-813 -825 0
-813 -826 0
-813 -827 0
-813 -828 0
-813 -829 0
-813 -830 0
-813 -931 0
-813 -932 0
-813 -933 0
-813 -934 0
-813 -935 0
-813 -936 0
-813 -938 0
-813 -939 0
-813 -940 0
-814 -822 0
-814 -823 0
-814 -824 0
-814 -825 0
-814 -826 0
-814 -827 0
-814 -828 0
-814 -829 0
-814 -830 0
-814 -931 0
-814 -932 0
-814 -933 0
-814 -934 0
-814 -935 0
-814 -936 0
-814 -937 0
-814 -939 0
-814 -940 0
-815 -821 0
-815 -822 0
-815 -823 0
-815 -824 0
-815 -825 0
-815 -827 0
-815 -828 0
-815 -830 0
-815 -931 0
-815 -932 0
-815 -934 0
-815 -935 0
-815 -936 0
-815 -937 0
-815 -938 0
-815 -940 0
-816 -821 0
-816 -822 0
-816 -823 0
-816 -824 0
-816 -825 0
-816 -826 0
-816 -828 0
-816 -829 0
-816 -830 0
-816 -931 0
-816 -932 0
-816 -933 0
-816 -935 0
-816 -936 0
-816 -937 0
-816 -938 0
-816 -939 0
-817 -821 0
-817 -822 0
-817 -823 0
-817 -824 0
-817 -825 0
-817 -826 0
-817 -827 0
-817 -829 0
-817 -830 0
-817 -932 0
-817 -933 0
-817 -934 0
-817 -935 0
-817 -936 0
-817 -937 0
-817 -938 0
-817 -939 0
-817 -940 0
-818 -821 0
-818 -823 0
-818 -824 0
-818 -826 0
-818 -827 0
-818 -828 0
-818 -829 0
-818 -830 0
-818 -931 0
-818 -933 0
-818 -934 0
-818 -936 0
-818 -937 0
-818 -938 0
-818 -939 0
-818 -940 0
-819 -821 0
-819 -822 0
-819 -823 0
-819 -824 0
-819 -825 0
-819 -826 0
-819 -827 0
-819 -828 0
-819 -829 0
-819 -931 0
-819 -932 0
-819 -933 0
-819 -935 0
-819 -936 0
-819 -937 0
-819 -938 0
-819 -939 0
-820 -822 0
-820 -823 0
-820 -824 0
-820 -825 0
-820 -826 0
-820 -827 0
-820 -828 0
-820 -829 0
-820 -830 0
-820 -932 0
-820 -933 0
-820 -934 0
-820 -935 0
-820 -936 0
-820 -937 0
-820 -938 0
-820 -939 0
-820 -940 0
-821 -831 0
-821 -833 0
-821 -834 0
-821 -836 0
-821 -837 0
-821 -838 0
-821 -839 0
-821 -840 0
-821 -941 0
-821 -943 0
-821 -944 0
-821 -946 0
-821 -947 0
-821 -948 0
-821 -949 0
-821 -950 0
-822 -831 0
-822 -832 0
-822 -834 0
-822 -835 0
-822 -836 0
-822 -837 0
-822 -838 0
-822 -839 0
-822 -840 0
-822 -941 0
-822 -942 0
-822 -943 0
-822 -944 0
-822 -945 0
-822 -947 0
-822 -948 0
-822 -949 0
-822 -950 0
-823 -831 0
-823 -832 0
-823 -833 0
-823 -835 0
-823 -836 0
-823 -837 0
-823 -838 0
-823 -839 0
-823 -840 0
-823 -941 0
-823 -942 0
-823 -943 0
-823 -944 0
-823 -945 0
-823 -946 0
-823 -948 0
-823 -949 0
-823 -950 0
-824 -832 0
-824 -833 0
-824 -834 0
-824 -835 0
-824 -836 0
-824 -837 0
-824 -838 0
-824 -839 0
-824 -840 0
-824 -941 0
-824 -942 0
-824 -943 0
-824 -944 0
-824 -945 0
-824 -946 0
-824 -947 0
-824 -949 0
-824 -950 0
-825 -831 0
-825 -832 0
-825 -833 0
-825 -834 0
-825 -835 0
-825 -837 0
-825 -838 0
-825 -840 0
-825 -941 0
-825 -942 0
-825 -944 0
-825 -945 0
-825 -946 0
-825 -947 0
-825 -948 0
-825 -950 0
-826 -831 0
-826 -832 0
-826 -833 0
-826 -834 0
-826 -835 0
-826 -836 0
-826 -838 0
-826 -839 0
-826 -840 0
-826 -941 0
-826 -942 0
-826 -943 0
-826 -945 0
-826 -946 0
-826 -947 0
-826 -948 0
-826 -949 0
-827 -831 0
-827 -832 0
-827 -833 0
-827 -834 0
-827 -835 0
-827 -836 0
-827 -837 0
-827 -839 0
-827 -840 0
-827 -942 0
-827 -943 0
-827 -944 0
-827 -945 0
-827 -946 0
-827 -947 0
-827 -948 0
-827 -949 0
-827 -950 0
-828 -831 0
-828 -833 0
-828 -834 0
-828 -836 0
-828 -837 0
-828 -838 0
-828 -839 0
-828 -840 0
-828 -941 0
-828 -943 0
-828 -944 0
-828 -946 0
-828 -947 0
-828 -948 0
-828 -949 0
-828 -950 0
-829 -831 0
-829 -832 0
-829 -833 0
-829 -834 0
-829 -835 0
-829 -836 0
-829 -837 0
-829 -838 0
-829 -839 0
-829 -941 0
-829 -942 0
-829 -943 0
-829 -945 0
-829 -946 0
-829 -947 0
-829 -948 0
-829 -949 0
-830 -832 0
-830 -833 0
-830 -834 0
-830 -835 0
-830 -836 0
-830 -837 0
-830 -838 0
-830 -839 0
-830 -840 0
-830 -942 0
-830 -943 0
-830 -944 0
-830 -945 0
-830 -946 0
-830 -947 0
-830 -948 0
-830 -949 0
-830 -950 0
-831 -951 0
-831 -953 0
-831 -954 0
-831 -956 0
-831 -957 0
-831 -958 0
-831 -959 0
-831 -960 0
-832 -951 0
-832 -952 0
-832 -953 0
-832 -954 0
-832 -955 0
-832 -957 0
-832 -958 0
-832 -959 0
-832 -960 0
-833 -951 0
-833 -952 0
-833 -953 0
-833 -954 0
-833 -955 0
-833 -956 0
-833 -958 0
-833 -959 0
-833 -960 0
-834 -951 0
-834 -952 0
-834 -953 0
-834 -954 0
-834 -955 0
-834 -956 0
-834 -957 0
-834 -959 0
-834 -960 0
-835 -951 0
-835 -952 0
-835 -954 0
-835 -955 0
-835 -956 0
-835 -957 0
-835 -958 0
-835 -960 0
-836 -951 0
-836 -952 0
-836 -953 0
-836 -955 0
-836 -956 0
-836 -957 0
-836 -958 0
-836 -959 0
-837 -952 0
-837 -953 0
-837 -954 0
-837 -955 0
-837 -956 0
-837 -957 0
-837 -958 0
-837 -959 0
-837 -960 0
-838 -951 0
-838 -953 0
-838 -954 0
-838 -956 0
-838 -957 0
-838 -958 0
-838 -959 0
-838 -960 0
-839 -951 0
-839 -952 0
-839 -953 0
-839 -955 0
-839 -956 0
-839 -957 0
-839 -958 0
-839 -959 0
-840 -952 0
-840 -953 0
-840 -954 0
-840 -955 0
-840 -956 0
-840 -957 0
-840 -958 0
-840 -959 0
-840 -960 0
-841 -851 0
-841 -853 0
-841 -854 0
-841 -856 0
-841 -857 0
-841 -858 0
-841 -859 0
-841 -860 0
-841 -961 0
-841 -963 0
-841 -964 0
-841 -966 0
-841 -967 0
-841 -968 0
-841 -969 0
-841 -970 0
-842 -851 0
-842 -852 0
-842 -854 0
-842 -855 0
-842 -856 0
-842 -857 0
-842 -858 0
-842 -859 0
-842 -860 0
-842 -961 0
-842 -962 0
-842 -963 0
-842 -964 0
-842 -965 0
-842 -967 0
-842 -968 0
-842 -969 0
-842 -970 0
-843 -851 0
-843 -852 0
-843 -853 0
-843 -855 0
-843 -856 0
-843 -857 0
-843 -858 0
-843 -859 0
-843 -860 0
-843 -961 0
-843 -962 0
-843 -963 0
-843 -964 0
-843 -965 0
-843 -966 0
-843 -968 0
-843 -969 0
-843 -970 0
-844 -852 0
-844 -853 0
-844 -854 0
-844 -855 0
-844 -856 0
-844 -857 0
-844 -858 0
-844 -859 0
-844 -860 0
-844 -961 0
-844 -962 0
-844 -963 0
-844 -964 0
-844 -965 0
-844 -966 0
-844 -967 0
-844 -969 0
-844 -970 0
-845 -851 0
-845 -852 0
-845 -853 0
-845 -854 0
-845 -855 0
-845 -857 0
-845 -858 0
-845 -860 0
-845 -961 0
-845 -962 0
-845 -964 0
-845 -965 0
-845 -966 0
-845 -967 0
-845 -968 0
-845 -970 0
-846 -851 0
-846 -852 0
-846 -853 0
-846 -854 0
-846 -855 0
-846 -856 0
-846 -858 0
-846 -859 0
-846 -860 0
-846 -961 0
-846 -962 0
-846 -963 0
-846 -965 0
-846 -966 0
-846 -967 0
-846 -968 0
-846 -969 0
-847 -851 0
-847 -852 0
-847 -853 0
-847 -854 0
-847 -855 0
-847 -856 0
-847 -857 0
-847 -859 0
-847 -860 0
-847 -962 0
-847 -963 0
-847 -964 0
-847 -965 0
-847 -966 0
-847 -967 0
-847 -968 0
-847 -969 0
-847 -970 0
-848 -851 0
-848 -853 0
-848 -854 0
-848 -856 0
-848 -857 0
-848 -858 0
-848 -859 0
-848 -860 0
-848 -961 0
-848 -963 0
-848 -964 0
-848 -966 0
-848 -967 0
-848 -968 0
-848 -969 0
-848 -970 0
-849 -851 0
-849 -852 0
-849 -853 0
-849 -854 0
-849 -855 0
-849 -856 0
-849 -857 0
-849 -858 0
-849 -859 0
-849 -961 0
-849 -962 0
-849 -963 0
-849 -965 0
-849 -966 0
-849 -967 0
-849 -968 0
-849 -969 0
-850 -852 0
-850 -853 0
-850 -854 0
-850 -855 0
-850 -856 0
-850 -857 0
-850 -858 0
-850 -859 0
-850 -860 0
-850 -962 0
-850 -963 0
-850 -964 0
-850 -965 0
-850 -966 0
-850 -967 0
-850 -968 0
-850 -969 0
-850 -970 0
-851 -861 0
-851 -863 0
-851 -864 0
-851 -866 0
-851 -867 0
-851 -868 0
-851 -869 0
-851 -870 0
-851 -971 0
-851 -973 0
-851 -974 0
-851 -976 0
-851 -977 0
-851 -978 0
-851 -979 0
-851 -980 0
-852 -861 0
-852 -862 0
-852 -864 0
-852 -865 0
-852 -866 0
-852 -867 0
-852 -868 0
-852 -869 0
-852 -870 0
-852 -971 0
-852 -972 0
-852 -973 0
-852 -974 0
-852 -975 0
-852 -977 0
-852 -978 0
-852 -979 0
-852 -980 0
-853 -861 0
-853 -862 0
-853 -863 0
-853 -865 0
-853 -866 0
-853 -867 0
-853 -868 0
-853 -869 0
-853 -870 0
-853 -971 0
-853 -972 0
-853 -973 0
-853 -974 0
-853 -975 0
-853 -976 0
-853 -978 0
-853 -979 0
-853 -980 0
-854 -862 0
-854 -863 0
-854 -864 0
-854 -865 0
-854 -866 0
-854 -867 0
-854 -868 0
-854 -869 0
-854 -870 0
-854 -971 0
-854 -972 0
-854 -973 0
-854 -974 0
-854 -975 0
-854 -976 0
-854 -977 0
-854 -979 0
-854 -980 0
-855 -861 0
-855 -862 0
-855 -863 0
-855 -864 0
-855 -865 0
-855 -867 0
-855 -868 0
-855 -870 0
-855 -971 0
-855 -972 0
-855 -974 0
-855 -975 0
-855 -976 0
-855 -977 0
-855 -978 0
-855 -980 0
-856 -861 0
-856 -862 0
-856 -863 0
-856 -864 0
-856 -865 0
-856 -866 0
-856 -868 0
-856 -869 0
-856 -870 0
-856 -971 0
-856 -972 0
-856 -973 0
-856 -975 0
-856 -976 0
-856 -977 0
-856 -978 0
-856 -979 0
-857 -861 0
-857 -862 0
-857 -863 0
-857 -864 0
-857 -865 0
-857 -866 0
-857 -867 0
-857 -869 0
-857 -870 0
-857 -972 0
-857 -973 0
-857 -974 0
-857 -975 0
-857 -976 0
-857 -977 0
-857 -978 0
-857 -979 0
-857 -980 0
-858 -861 0
-858 -863 0
-858 -864 0
-858 -866 0
-858 -867 0
-858 -868 0
-858 -869 0
-858 -870 0
-858 -971 0
-858 -973 0
-858 -974 0
-858 -976 0
-858 -977 0
-858 -978 0
-858 -979 0
-858 -980 0
-859 -861 0
-859 -862 0
-859 -863 0
-859 -864 0
-859 -865 0
-859 -866 0
-859 -867 0
-859 -868 0
-859 -869 0
-859 -971 0
-859 -972 0
-859 -973 0
-859 -975 0
-859 -976 0
-859 -977 0
-859 -978 0
-859 -979 0
-860 -862 0
-860 -863 0
-860 -864 0
-860 -865 0
-860 -866 0
-860 -867 0
-860 -868 0
-860 -869 0
-860 -870 0
-860 -972 0
-860 -973 0
-860 -974 0
-860 -975 0
-860 -976 0
-860 -977 0
-860 -978 0
-860 -979 0
-860 -980 0
-861 -871 0
-861 -873 0
-861 -874 0
-861 -876 0
-861 -877 0
-861 -878 0
-861 -879 0
-861 -880 0
-861 -981 0
-861 -983 0
-861 -984 0
-861 -986 0
-861 -987 0
-861 -988 0
-861 -989 0
-861 -990 0
-862 -871 0
-862 -872 0
-862 -874 0
-862 -875 0
-862 -876 0
-862 -877 0
-862 -878 0
-862 -879 0
-862 -880 0
-862 -981 0
-862 -982 0
-862 -983 0
-862 -984 0
-862 -985 0
-862 -987 0
-862 -988 0
-862 -989 0
-862 -990 0
-863 -871 0
-863 -872 0
-863 -873 0
-863 -875 0
-863 -876 0
-863 -877 0
-863 -878 0
-863 -879 0
-863 -880 0
-863 -981 0
-863 -982 0
-863 -983 0
-863 -984 0
-863 -985 0
-863 -986 0
-863 -988 0
-863 -989 0
-863 -990 0
-864 -872 0
-864 -873 0
-864 -874 0
-864 -875 0
-864 -876 0
-864 -877 0
-864 -878 0
-864 -879 0
-864 -880 0
-864 -981 0
-864 -982 0
-864 -983 0
-864 -984 0
-864 -985 0
-864 -986 0
-864 -987 0
-864 -989 0
-864 -990 0
-865 -871 0
-865 -872 0
-865 -873 0
-865 -874 0
-865 -875 0
-865 -877 0
-865 -878 0
-865 -880 0
-865 -981 0
-865 -982 0
-865 -984 0
-865 -985 0
-865 -986 0
-865 -987 0
-865 -988 0
-865 -990 0
-866 -871 0
-866 -872 0
-866 -873 0
-866 -874 0
-866 -875 0
-866 -876 0
-866 -878 0
-866 -879 0
-866 -880 0
-866 -981 0
-866 -982 0
-866 -983 0
-866 -985 0
-866 -986 0
-866 -987 0
-866 -988 0
-866 -989 0
-867 -871 0
-867 -872 0
-867 -873 0
-867 -874 0
-867 -875 0
-867 -876 0
-867 -877 0
-867 -879 0
-867 -880 0
-867 -982 0
-867 -983 0
-867 -984 0
-867 -985 0
-867 -986 0
-867 -987 0
-867 -988 0
-867 -989 0
-867 -990 0
-868 -871 0
-868 -873 0
-868 -874 0
-868 -876 0
-868 -877 0
-868 -878 0
-868 -879 0
-868 -880 0
-868 -981 0
-868 -983 0
-868 -984 0
-868 -986 0
-868 -987 0
-868 -988 0
-868 -989 0
-868 -990 0
-869 -871 0
-869 -872 0
-869 -873 0
-869 -874 0
-869 -875 0
-869 -876 0
-869 -877 0
-869 -878 0
-869 -879 0
-869 -981 0
-869 -982 0
-869 -983 0
-869 -985 0
-869 -986 0
-869 -987 0
-869 -988 0
-869 -989 0
-870 -872 0
-870 -873 0
-870 -874 0
-870 -875 0
-870 -876 0
-870 -877 0
-870 -878 0
-870 -879 0
-870 -880 0
-870 -982 0
-870 -983 0
-870 -984 0
-870 -985 0
-870 -986 0
-870 -987 0
-870 -988 0
-870 -989 0
-870 -990 0
-871 -881 0
-871 -883 0
-871 -884 0
-871 -886 0
-871 -887 0
-871 -888 0
-871 -889 0
-871 -890 0
-871 -991 0
-871 -993 0
-871 -994 0
-871 -996 0
-871 -997 0
-871 -998 0
-871 -999 0
-871 -1000 0
-872 -881 0
-872 -882 0
-872 -884 0
-872 -885 0
-872 -886 0
-872 -887 0
-872 -888 0
-872 -889 0
-872 -890 0
-872 -991 0
-872 -992 0
-872 -993 0
-872 -994 0
-872 -995 0
-872 -997 0
-872 -998 0
-872 -999 0
-872 -1000 0
-873 -881 0
-873 -882 0
-873 -883 0
-873 -885 0
-873 -886 0
-873 -887 0
-873 -888 0
-873 -889 0
-873 -890 0
-873 -991 0
-873 -992 0
-873 -993 0
-873 -994 0
-873 -995 0
-873 -996 0
-873 -998 0
-873 -999 0
-873 -1000 0
-874 -882 0
-874 -883 0
-874 -884 0
-874 -885 0
-874 -886 0
-874 -887 0
-874 -888 0
-874 -889 0
-874 -890 0
-874 -991 0
-874 -992 0
-874 -993 0
-874 -994 0
-874 -995 0
-874 -996 0
-874 -997 0
-874 -999 0
-874 -1000 0
-875 -881 0
-875 -882 0
-875 -883 0
-875 -884 0
-875 -885 0
-875 -887 0
-875 -888 0
-875 -890 0
-875 -991 0
-875 -992 0
-875 -994 0
-875 -995 0
-875 -996 0
-875 -997 0
-875 -998 0
-875 -1000 0
-876 -881 0
-876 -882 0
-876 -883 0
-876 -884 0
-876 -885 0
-876 -886 0
-876 -888 0
-876 -889 0
-876 -890 0
-876 -991 0
-876 -992 0
-876 -993 0
-876 -995 0
-876 -996 0
-876 -997 0
-876 -998 0
-876 -999 0
-877 -881 0
-877 -882 0
-877 -883 0
-877 -884 0
-877 -885 0
-877 -886 0
-877 -887 0
-877 -889 0
-877 -890 0
-877 -992 0
-877 -993 0
-877 -994 0
-877 -995 0
-877 -996 0
-877 -997 0
-877 -998 0
-877 -999 0
-877 -1000 0
-878 -881 0
-878 -883 0
-878 -884 0
-878 -886 0
-878 -887 0
-878 -888 0
-878 -889 0
-878 -890 0
-878 -991 0
-878 -993 0
-878 -994 0
-878 -996 0
-878 -997 0
-878 -998 0
-878 -999 0
-878 -1000 0
-879 -881 0
-879 -882 0
-879 -883 0
-879 -884 0
-879 -885 0
-879 -886 0
-879 -887 0
-879 -888 0
-879 -889 0
-879 -991 0
-879 -992 0
-879 -993 0
-879 -995 0
-879 -996 0
-879 -997 0
-879 -998 0
-879 -999 0
-880 -882 0
-880 -883 0
-880 -884 0
-880 -885 0
-880 -886 0
-880 -887 0
-880 -888 0
-880 -889 0
-880 -890 0
-880 -992 0
-880 -993 0
-880 -994 0
-880 -995 0
-880 -996 0
-880 -997 0
-880 -998 0
-880 -999 0
-880 -1000 0
-881 -891 0
-881 -893 0
-881 -894 0
-881 -896 0
-881 -897 0
-881 -898 0
-881 -899 0
-881 -900 0
-881 -1001 0
-881 -1003 0
-881 -1004 0
-881 -1006 0
-881 -1007 0
-881 -1008 0
-881 -1009 0
-881 -1010 0
-882 -891 0
-882 -892 0
-882 -894 0
-882 -895 0
-882 -896 0
-882 -897 0
-882 -898 0
-882 -899 0
-882 -900 0
-882 -1001 0
-882 -1002 0
-882 -1003 0
-882 -1004 0
-882 -1005 0
-882 -1007 0
-882 -1008 0
-882 -1009 0
-882 -1010 0
-883 -891 0
-883 -892 0
-883 -893 0
-883 -895 0
-883 -896 0
-883 -897 0
-883 -898 0
-883 -899 0
-883 -900 0
-883 -1001 0
-883 -1002 0
-883 -1003 0
-883 -1004 0
-883 -1005 0
-883 -1006 0
-883 -1008 0
-883 -1009 0
-883 -1010 0
-884 -892 0
-884 -893 0
-884 -894 0
-884 -895 0
-884 -896 0
-884 -897 0
-884 -898 0
-884 -899 0
-884 -900 0
-884 -1001 0
-884 -1002 0
-884 -1003 0
-884 -1004 0
-884 -1005 0
-884 -1006 0
-884 -1007 0
-884 -1009 0
-884 -1010 0
-885 -891 0
-885 -892 0
-885 -893 0
-885 -894 0
-885 -895 0
-885 -897 0
-885 -898 0
-885 -900 0
-885 -1001 0
-885 -1002 0
-885 -1004 0
-885 -1005 0
-885 -1006 0
-885 -1007 0
-885 -1008 0
-885 -1010 0
-886 -891 0
-886 -892 0
-886 -893 0
-886 -894 0
-886 -895 0
-886 -896 0
-886 -898 0
-886 -899 0
-886 -900 0
-886 -1001 0
-886 -1002 0
-886 -1003 0
-886 -1005 0
-886 -1006 0
-886 -1007 0
-886 -1008 0
-886 -1009 0
-887 -891 0
-887 -892 0
-887 -893 0
-887 -894 0
-887 -895 0
-887 -896 0
-887 -897 0
-887 -899 0
-887 -900 0
-887 -1002 0
-887 -1003 0
-887 -1004 0
-887 -1005 0
-887 -1006 0
-887 -1007 0
-887 -1008 0
-887 -1009 0
-887 -1010 0
-888 -891 0
-888 -893 0
-888 -894 0
-888 -896 0
-888 -897 0
-888 -898 0
-888 -899 0
-888 -900 0
-888 -1001 0
-888 -1003 0
-888 -1004 0
-888 -1006 0
-888 -1007 0
-888 -1008 0
-888 -1009 0
-888 -1010 0
-889 -891 0
-889 -892 0
-889 -893 0
-889 -894 0
-889 -895 0
-889 -896 0
-889 -897 0
-889 -898 0
-889 -899 0
-889 -1001 0
-889 -1002 0
-889 -1003 0
-889 -1005 0
-889 -1006 0
-889 -1007 0
-889 -1008 0
-889 -1009 0
-890 -892 0
-890 -893 0
-890 -894 0
-890 -895 0
-890 -896 0
-890 -897 0
-890 -898 0
-890 -899 0
-890 -900 0
-890 -1002 0
-890 -1003 0
-890 -1004 0
-890 -1005 0
-890 -1006 0
-890 -1007 0
-890 -1008 0
-890 -1009 0
-890 -1010 0
-891 -901 0
-891 -903 0
-891 -904 0
-891 -906 0
-891 -907 0
-891 -908 0
-891 -909 0
-891 -910 0
-891 -1011 0
-891 -1013 0
-891 -1014 0
-891 -1016 0
-891 -1017 0
-891 -1018 0
-891 -1019 0
-891 -1020 0
-892 -901 0
-892 -902 0
-892 -904 0
-892 -905 0
-892 -906 0
-892 -907 0
-892 -908 0
-892 -909 0
-892 -910 0
-892 -1011 0
-892 -1012 0
-892 -1013 0
-892 -1014 0
-892 -1015 0
-892 -1017 0
-892 -1018 0
-892 -1019 0
-892 -1020 0
-893 -901 0
-893 -902 0
-893 -903 0
-893 -905 0
-893 -906 0
-893 -907 0
-893 -908 0
-893 -909 0
-893 -910 0
-893 -1011 0
-893 -1012 0
-893 -1013 0
-893 -1014 0
-893 -1015 0
-893 -1016 0
-893 -1018 0
-893 -1019 0
-893 -1020 0
-894 -902 0
-894 -903 0
-894 -904 0
-894 -905 0
-894 -906 0
-894 -907 0
-894 -908 0
-894 -909 0
-894 -910 0
-894 -1011 0
-894 -1012 0
-894 -1013 0
-894 -1014 0
-894 -1015 0
-894 -1016 0
-894 -1017 0
-894 -1019 0
-894 -1020 0
-895 -901 0
-895 -902 0
-895 -903 0
-895 -904 0
-895 -905 0
-895 -907 0
-895 -908 0
-895 -910 0
-895 -1011 0
-895 -1012 0
-895 -1014 0
-895 -1015 0
-895 -1016 0
-895 -1017 0
-895 -1018 0
-895 -1020 0
-896 -901 0
-896 -902 0
-896 -903 0
-896 -904 0
-896 -905 0
-896 -906 0
-896 -908 0
-896 -909 0
-896 -910 0
-896 -1011 0
-896 -1012 0
-896 -1013 0
-896 -1015 0
-896 -1016 0
-896 -1017 0
-896 -1018 0
-896 -1019 0
-897 -901 0
-897 -902 0
-897 -903 0
-897 -904 0
-897 -905 0
-897 -906 0
-897 -907 0
-897 -909 0
-897 -910 0
-897 -1012 0
-897 -1013 0
-897 -1014 0
-897 -1015 0
-897 -1016 0
-897 -1017 0
-897 -1018 0
-897 -1019 0
-897 -1020 0
-898 -901 0
-898 -903 0
-898 -904 0
-898 -906 0
-898 -907 0
-898 -908 0
-898 -909 0
-898 -910 0
-898 -1011 0
-898 -1013 0
-898 -1014 0
-898 -1016 0
-898 -1017 0
-898 -1018 0
-898 -1019 0
-898 -1020 0
-899 -901 0
-899 -902 0
-899 -903 0
-899 -904 0
-899 -905 0
-899 -906 0
-899 -907 0
-899 -908 0
-899 -909 0
-899 -1011 0
-899 -1012 0
-899 -1013 0
-899 -1015 0
-899 -1016 0
-899 -1017 0
-899 -1018 0
-899 -1019 0
-900 -902 0
-900 -903 0
-900 -904 0
-900 -905 0
-900 -906 0
-900 -907 0
-900 -908 0
-900 -909 0
-900 -910 0
-900 -1012 0
-900 -1013 0
-900 -1014 0
-900 -1015 0
-900 -1016 0
-900 -1017 0
-900 -1018 0
-900 -1019 0
-900 -1020 0
-901 -911 0
-901 -913 0
-901 -914 0
-901 -916 0
-901 -917 0
-901 -918 0
-901 -919 0
-901 -920 0
-901 -1021 0
-901 -1023 0
-901 -1024 0
-901 -1026 0
-901 -1027 0
-901 -1028 0
-901 -1029 0
-901 -1030 0
-902 -911 0
-902 -912 0
-902 -914 0
-902 -915 0
-902 -916 0
-902 -917 0
-902 -918 0
-902 -919 0
-902 -920 0
-902 -1021 0
-902 -1022 0
-902 -1023 0
-902 -1024 0
-902 -1025 0
-902 -1027 0
-902 -1028 0
-902 -1029 0
-902 -1030 0
-903 -911 0
-903 -912 0
-903 -913 0
-903 -915 0
-903 -916 0
-903 -917 0
-903 -918 0
-903 -919 0
-903 -920 0
-903 -1021 0
-903 -1022 0
-903 -1023 0
-903 -1024 0
-903 -1025 0
-903 -1026 0
-903 -1028 0
-903 -1029 0
-903 -1030 0
-904 -912 0
-904 -913 0
-904 -914 0
-904 -915 0
-904 -916 0
-904 -917 0
-904 -918 0
-904 -919 0
-904 -920 0
-904 -1021 0
-904 -1022 0
-904 -1023 0
-904 -1024 0
-904 -1025 0
-904 -1026 0
-904 -1027 0
-904 -1029 0
-904 -1030 0
-905 -911 0
-905 -912 0
-905 -913 0
-905 -914 0
-905 -915 0
-905 -917 0
-905 -918 0
-905 -920 0
-905 -1021 0
-905 -1022 0
-905 -1024 0
-905 -1025 0
-905 -1026 0
-905 -1027 0
-905 -1028 0
-905 -1030 0
-906 -911 0
-906 -912 0
-906 -913 0
-906 -914 0
-906 -915 0
-906 -916 0
-906 -918 0
-906 -919 0
-906 -920 0
-906 -1021 0
-906 -1022 0
-906 -1023 0
-906 -1025 0
-906 -1026 0
-906 -1027 0
-906 -1028 0
-906 -1029 0
-907 -911 0
-907 -912 0
-907 -913 0
-907 -914 0
-907 -915 0
-907 -916 0
-907 -917 0
-907 -919 0
-907 -920 0
-907 -1022 0
-907 -1023 0
-907 -1024 0
-907 -1025 0
-907 -1026 0
-907 -1027 0
-907 -1028 0
-907 -1029 0
-907 -1030 0
-908 -911 0
-908 -913 0
-908 -914 0
-908 -916 0
-908 -917 0
-908 -918 0
-908 -919 0
-908 -920 0
-908 -1021 0
-908 -1023 0
-908 -1024 0
-908 -1026 0
-908 -1027 0
-908 -1028 0
-908 -1029 0
-908 -1030 0
-909 -911 0
-909 -912 0
-909 -913 0
-909 -914 0
-909 -915 0
-909 -916 0
-909 -917 0
-909 -918 0
-909 -919 0
-909 -1021 0
-909 -1022 0
-909 -1023 0
-909 -1025 0
-909 -1026 0
-909 -1027 0
-909 -1028 0
-909 -1029 0
-910 -912 0
-910 -913 0
-910 -914 0
-910 -915 0
-910 -916 0
-910 -917 0
-910 -918 0
-910 -919 0
-910 -920 0
-910 -1022 0
-910 -1023 0
-910 -1024 0
-910 -1025 0
-910 -1026 0
-910 -1027 0
-910 -1028 0
-910 -1029 0
-910 -1030 0
-911 -921 0
-911 -923 0
-911 -924 0
-911 -926 0
-911 -927 0
-911 -928 0
-911 -929 0
-911 -930 0
-911 -1031 0
-911 -1033 0
-911 -1034 0
-911 -1036 0
-911 -1037 0
-911 -1038 0
-911 -1039 0
-911 -1040 0
-912 -921 0
-912 -922 0
-912 -924 0
-912 -925 0
-912 -926 0
-912 -927 0
-912 -928 0
-912 -929 0
-912 -930 0
-912 -1031 0
-912 -1032 0
-912 -1033 0
-912 -1034 0
-912 -1035 0
-912 -1037 0
-912 -1038 0
-912 -1039 0
-912 -1040 0
-913 -921 0
-913 -922 0
-913 -923 0
-913 -925 0
-913 -926 0
-913 -927 0
-913 -928 0
-913 -929 0
-913 -930 0
-913 -1031 0
-913 -1032 0
-913 -1033 0
-913 -1034 0
-913 -1035 0
-913 -1036 0
-913 -1038 0
-913 -1039 0
-913 -1040 0
-914 -922 0
-914 -923 0
-914 -924 0
-914 -925 0
-914 -926 0
-914 -927 0
-914 -928 0
-914 -929 0
-914 -930 0
-914 -1031 0
-914 -1032 0
-914 -1033 0
-914 -1034 0
-914 -1035 0
-914 -1036 0
-914 -1037 0
-914 -1039 0
-914 -1040 0
-915 -921 0
-915 -922 0
-915 -923 0
-915 -924 0
-915 -925 0
-915 -927 0
-915 -928 0
-915 -930 0
-915 -1031 0
-915 -1032 0
-915 -1034 0
-915 -1035 0
-915 -1036 0
-915 -1037 0
-915 -1038 0
-915 -1040 0
-916 -921 0
-916 -922 0
-916 -923 0
-916 -924 0
-916 -925 0
-916 -926 0
-916 -928 0
-916 -929 0
-916 -930 0
-916 -1031 0
-916 -1032 0
-916 -1033 0
-916 -1035 0
-916 -1036 0
-916 -1037 0
-916 -1038 0
-916 -1039 0
-917 -921 0
-917 -922 0
-917 -923 0
-917 -924 0
-917 -925 0
-917 -926 0
-917 -927 0
-917 -929 0
-917 -930 0
-917 -1032 0
-917 -1033 0
-917 -1034 0
-917 -1035 0
-917 -1036 0
-917 -1037 0
-917 -1038 0
-917 -1039 0
-917 -1040 0
-918 -921 0
-918 -923 0
-918 -924 0
-918 -926 0
-918 -927 0
-918 -928 0
-918 -929 0
-918 -930 0
-918 -1031 0
-918 -1033 0
-918 -1034 0
-918 -1036 0
-918 -1037 0
-918 -1038 0
-918 -1039 0
-918 -1040 0
-919 -921 0
-919 -922 0
-919 -923 0
-919 -924 0
-919 -925 0
-919 -926 0
-919 -927 0
-919 -928 0
-919 -929 0
-919 -1031 0
-919 -1032 0
-919 -1033 0
-919 -1035 0
-919 -1036 0
-919 -1037 0
-919 -1038 0
-919 -1039 0
-920 -922 0
-920 -923 0
-920 -924 0
-920 -925 0
-920 -926 0
-920 -927 0
-920 -928 0
-920 -929 0
-920 -930 0
-920 -1032 0
-920 -1033 0
-920 -1034 0
-920 -1035 0
-920 -1036 0
-920 -1037 0
-920 -1038 0
-920 -1039 0
-920 -1040 0
-921 -931 0
-921 -933 0
-921 -934 0
-921 -936 0
-921 -937 0
-921 -938 0
-921 -939 0
-921 -940 0
-921 -1041 0
-921 -1043 0
-921 -1044 0
-921 -1046 0
-921 -1047 0
-921 -1048 0
-921 -1049 0
-921 -1050 0
-922 -931 0
-922 -932 0
-922 -934 0
-922 -935 0
-922 -936 0
-922 -937 0
-922 -938 0
-922 -939 0
-922 -940 0
-922 -1041 0
-922 -1042 0
-922 -1043 0
-922 -1044 0
-922 -1045 0
-922 -1047 0
-922 -1048 0
-922 -1049 0
-922 -1050 0
-923 -931 0
-923 -932 0
-923 -933 0
-923 -935 0
-923 -936 0
-923 -937 0
-923 -938 0
-923 -939 0
-923 -940 0
-923 -1041 0
-923 -1042 0
-923 -1043 0
-923 -1044 0
-923 -1045 0
-923 -1046 0
-923 -1048 0
-923 -1049 0
-923 -1050 0
-924 -932 0
-924 -933 0
-924 -934 0
-924 -935 0
-924 -936 0
-924 -937 0
-924 -938 0
-924 -939 0
-924 -940 0
-924 -1041 0
-924 -1042 0
-924 -1043 0
-924 -1044 0
-924 -1045 0
-924 -1046 0
-924 -1047 0
-924 -1049 0
-924 -1050 0
-925 -931 0
-925 -932 0
-925 -933 0
-925 -934 0
-925 -935 0
-925 -937 0
-925 -938 0
-925 -940 0
-925 -1041 0
-925 -1042 0
-925 -1044 0
-925 -1045 0
-925 -1046 0
-925 -1047 0
-925 -1048 0
-925 -1050 0
-926 -931 0
-926 -932 0
-926 -933 0
-926 -934 0
-926 -935 0
-926 -936 0
-926 -938 0
-926 -939 0
-926 -940 0
-926 -1041 0
-926 -1042 0
-926 -1043 0
-926 -1045 0
-926 -1046 0
-926 -1047 0
-926 -1048 0
-926 -1049 0
-927 -931 0
-927 -932 0
-927 -933 0
-927 -934 0
-927 -935 0
-927 -936 0
-927 -937 0
-927 -939 0
-927 -940 0
-927 -1042 0
-927 -1043 0
-927 -1044 0
-927 -1045 0
-927 -1046 0
-927 -1047 0
-927 -1048 0
-927 -1049 0
-927 -1050 0
-928 -931 0
-928 -933 0
-928 -934 0
-928 -936 0
-928 -937 0
-928 -938 0
-928 -939 0
-928 -940 0
-928 -1041 0
-928 -1043 0
-928 -1044 0
-928 -1046 0
-928 -1047 0
-928 -1048 0
-928 -1049 0
-928 -1050 0
-929 -931 0
-929 -932 0
-929 -933 0
-929 -934 0
-929 -935 0
-929 -936 0
-929 -937 0
-929 -938 0
-929 -939 0
-929 -1041 0
-929 -1042 0
-929 -1043 0
-929 -1045 0
-929 -1046 0
-929 -1047 0
-929 -1048 0
-929 -1049 0
-930 -932 0
-930 -933 0
-930 -934 0
-930 -935 0
-930 -936 0
-930 -937 0
-930 -938 0
-930 -939 0
-930 -940 0
-930 -1042 0
-930 -1043 0
-930 -1044 0
-930 -1045 0
-930 -1046 0
-930 -1047 0
-930 -1048 0
-930 -1049 0
-930 -1050 0
-931 -941 0
-931 -943 0
-931 -944 0
-931 -946 0
-931 -947 0
-931 -948 0
-931 -949 0
-931 -950 0
-931 -1051 0
-931 -1053 0
-931 -1054 0
-931 -1056 0
-931 -1057 0
-931 -1058 0
-931 -1059 0
-931 -1060 0
-932 -941 0
-932 -942 0
-932 -944 0
-932 -945 0
-932 -946 0
-932 -947 0
-932 -948 0
-932 -949 0
-932 -950 0
-932 -1051 0
-932 -1052 0
-932 -1053 0
-932 -1054 0
-932 -1055 0
-932 -1057 0
-932 -1058 0
-932 -1059 0
-932 -1060 0
-933 -941 0
-933 -942 0
-933 -943 0
-933 -945 0
-933 -946 0
-933 -947 0
-933 -948 0
-933 -949 0
-933 -950 0
-933 -1051 0
-933 -1052 0
-933 -1053 0
-933 -1054 0
-933 -1055 0
-933 -1056 0
-933 -1058 0
-933 -1059 0
-933 -1060 0
-934 -942 0
-934 -943 0
-934 -944 0
-934 -945 0
-934 -946 0
-934 -947 0
-934 -948 0
-934 -949 0
-934 -950 0
-934 -1051 0
-934 -1052 0
-934 -1053 0
-934 -1054 0
-934 -1055 0
-934 -1056 0
-934 -1057 0
-934 -1059 0
-934 -1060 0
-935 -941 0
-935 -942 0
-935 -943 0
-935 -944 0
-935 -945 0
-935 -947 0
-935 -948 0
-935 -950 0
-935 -1051 0
-935 -1052 0
-935 -1054 0
-935 -1055 0
-935 -1056 0
-935 -1057 0
-935 -1058 0
-935 -1060 0
-936 -941 0
-936 -942 0
-936 -943 0
-936 -944 0
-936 -945 0
-936 -946 0
-936 -948 0
-936 -949 0
-936 -950 0
-936 -1051 0
-936 -1052 0
-936 -1053 0
-936 -1055 0
-936 -1056 0
-936 -1057 0
-936 -1058 0
-936 -1059 0
-937 -941 0
-937 -942 0
-937 -943 0
-937 -944 0
-937 -945 0
-937 -946 0
-937 -947 0
-937 -949 0
-937 -950 0
-937 -1052 0
-937 -1053 0
-937 -1054 0
-937 -1055 0
-937 -1056 0
-937 -1057 0
-937 -1058 0
-937 -1059 0
-937 -1060 0
-938 -941 0
-938 -943 0
-938 -944 0
-938 -946 0
-938 -947 0
-938 -948 0
-938 -949 0
-938 -950 0
-938 -1051 0
-938 -1053 0
-938 -1054 0
-938 -1056 0
-938 -1057 0
-938 -1058 0
-938 -1059 0
-938 -1060 0
-939 -941 0
-939 -942 0
-939 -943 0
-939 -944 0
-939 -945 0
-939 -946 0
-939 -947 0
-939 -948 0
-939 -949 0
-939 -1051 0
-939 -1052 0
-939 -1053 0
-939 -1055 0
-939 -1056 0
-939 -1057 0
-939 -1058 0
-939 -1059 0
-940 -942 0
-940 -943 0
-940 -944 0
-940 -945 0
-940 -946 0
-940 -947 0
-940 -948 0
-940 -949 0
-940 -950 0
-940 -1052 0
-940 -1053 0
-940 -1054 0
-940 -1055 0
-940 -1056 0
-940 -1057 0
-940 -1058 0
-940 -1059 0
-940 -1060 0
-941 -951 0
-941 -953 0
-941 -954 0
-941 -956 0
-941 -957 0
-941 -958 0
-941 -959 0
-941 -960 0
-941 -1061 0
-941 -1063 0
-941 -1064 0
-941 -1066 0
-941 -1067 0
-941 -1068 0
-941 -1069 0
-941 -1070 0
-942 -951 0
-942 -952 0
-942 -954 0
-942 -955 0
-942 -956 0
-942 -957 0
-942 -958 0
-942 -959 0
-942 -960 0
-942 -1061 0
-942 -1062 0
-942 -1063 0
-942 -1064 0
-942 -1065 0
-942 -1067 0
-942 -1068 0
-942 -1069 0
-942 -1070 0
-943 -951 0
-943 -952 0
-943 -953 0
-943 -955 0
-943 -956 0
-943 -957 0
-943 -958 0
-943 -959 0
-943 -960 0
-943 -1061 0
-943 -1062 0
-943 -1063 0
-943 -1064 0
-943 -1065 0
-943 -1066 0
-943 -1068 0
-943 -1069 0
-943 -1070 0
-944 -952 0
-944 -953 0
-944 -954 0
-944 -955 0
-944 -956 0
-944 -957 0
-944 -958 0
-944 -959 0
-944 -960 0
-944 -1061 0
-944 -1062 0
-944 -1063 0
-944 -1064 0
-944 -1065 0
-944 -1066 0
-944 -1067 0
-944 -1069 0
-944 -1070 0
-945 -951 0
-945 -952 0
-945 -953 0
-945 -954 0
-945 -955 0
-945 -957 0
-945 -958 0
-945 -960 0
-945 -1061 0
-945 -1062 0
-945 -1064 0
-945 -1065 0
-945 -1066 0
-945 -1067 0
-945 -1068 0
-945 -1070 0
-946 -951 0
-946 -952 0
-946 -953 0
-946 -954 0
-946 -955 0
-946 -956 0
-946 -958 0
-946 -959 0
-946 -960 0
-946 -1061 0
-946 -1062 0
-946 -1063 0
-946 -1065 0
-946 -1066 0
-946 -1067 0
-946 -1068 0
-946 -1069 0
-947 -951 0
-947 -952 0
-947 -953 0
-947 -954 0
-947 -955 0
-947 -956 0
-947 -957 0
-947 -959 0
-947 -960 0
-947 -1062 0
-947 -1063 0
-947 -1064 0
-947 -1065 0
-947 -1066 0
-947 -1067 0
-947 -1068 0
-947 -1069 0
-947 -1070 0
-948 -951 0
-948 -953 0
-948 -954 0
-948 -956 0
-948 -957 0
-948 -958 0
-948 -959 0
-948 -960 0
-948 -1061 0
-948 -1063 0
-948 -1064 0
-948 -1066 0
-948 -1067 0
-948 -1068 0
-948 -1069 0
-948 -1070 0
-949 -951 0
-949 -952 0
-949 -953 0
-949 -954 0
-949 -955 0
-949 -956 0
-949 -957 0
-949 -958 0
-949 -959 0
-949 -1061 0
-949 -1062 0
-949 -1063 0
-949 -1065 0
-949 -1066 0
-949 -1067 0
-949 -1068 0
-949 -1069 0
-950 -952 0
-950 -953 0
-950 -954 0
-950 -955 0
-950 -956 0
-950 -957 0
-950 -958 0
-950 -959 0
-950 -960 0
-950 -1062 0
-950 -1063 0
-950 -1064 0
-950 -1065 0
-950 -1066 0
-950 -1067 0
-950 -1068 0
-950 -1069 0
-950 -1070 0
-951 -1071 0
-951 -1073 0
-951 -1074 0
-951 -1076 0
-951 -1077 0
-951 -1078 0
-951 -1079 0
-951 -1080 0
-952 -1071 0
-952 -1072 0
-952 -1073 0
-952 -1074 0
-952 -1075 0
-952 -1077 0
-952 -1078 0
-952 -1079 0
-952 -1080 0
-953 -1071 0
-953 -1072 0
-953 -1073 0
-953 -1074 0
-953 -1075 0
-953 -1076 0
-953 -1078 0
-953 -1079 0
-953 -1080 0
-954 -1071 0
-954 -1072 0
-954 -1073 0
-954 -1074 0
-954 -1075 0
-954 -1076 0
-954 -1077 0
-954 -1079 0
-954 -1080 0
-955 -1071 0
-955 -1072 0
-955 -1074 0
-955 -1075 0
-955 -1076 0
-955 -1077 0
-955 -1078 0
-955 -1080 0
-956 -1071 0
-956 -1072 0
-956 -1073 0
-956 -1075 0
-956 -1076 0
-956 -1077 0
-956 -1078 0
-956 -1079 0
-957 -1072 0
-957 -1073 0
-957 -1074 0
-957 -1075 0
-957 -1076 0
-957 -1077 0
-957 -1078 0
-957 -1079 0
-957 -1080 0
-958 -1071 0
-958 -1073 0
-958 -1074 0
-958 -1076 0
-958 -1077 0
-958 -1078 0
-958 -1079 0
-958 -1080 0
-959 -1071 0
-959 -1072 0
-959 -1073 0
-959 -1075 0
-959 -1076 0
-959 -1077 0
-959 -1078 0
-959 -1079 0
-960 -1072 0
-960 -1073 0
-960 -1074 0
-960 -1075 0
-960 -1076 0
-960 -1077 0
-960 -1078 0
-960 -1079 0
-960 -1080 0
-961 -971 0
-961 -973 0
-961 -974 0
-961 -976 0
-961 -977 0
-961 -978 0
-961 -979 0
-961 -980 0
-961 -1081 0
-961 -1083 0
-961 -1084 0
-961 -1086 0
-961 -1087 0
-961 -1088 0
-961 -1089 0
-961 -1090 0
-962 -971 0
-962 -972 0
-962 -974 0
-962 -975 0
-962 -976 0
-962 -977 0
-962 -978 0
-962 -979 0
-962 -980 0
-962 -1081 0
-962 -1082 0
-962 -1083 0
-962 -1084 0
-962 -1085 0
-962 -1087 0
-962 -1088 0
-962 -1089 0
-962 -1090 0
-963 -971 0
-963 -972 0
-963 -973 0
-963 -975 0
-963 -976 0
-963 -977 0
-963 -978 0
-963 -979 0
-963 -980 0
-963 -1081 0
-963 -1082 0
-963 -1083 0
-963 -1084 0
-963 -1085 0
-963 -1086 0
-963 -1088 0
-963 -1089 0
-963 -1090 0
-964 -972 0
-964 -973 0
-964 -974 0
-964 -975 0
-964 -976 0
-964 -977 0
-964 -978 0
-964 -979 0
-964 -980 0
-964 -1081 0
-964 -1082 0
-964 -1083 0
-964 -1084 0
-964 -1085 0
-964 -1086 0
-964 -1087 0
-964 -1089 0
-964 -1090 0
-965 -971 0
-965 -972 0
-965 -973 0
-965 -974 0
-965 -975 0
-965 -977 0
-965 -978 0
-965 -980 0
-965 -1081 0
-965 -1082 0
-965 -1084 0
-965 -1085 0
-965 -1086 0
-965 -1087 0
-965 -1088 0
-965 -1090 0
-966 -971 0
-966 -972 0
-966 -973 0
-966 -974 0
-966 -975 0
-966 -976 0
-966 -978 0
-966 -979 0
-966 -980 0
-966 -1081 0
-966 -1082 0
-966 -1083 0
-966 -1085 0
-966 -1086 0
-966 -1087 0
-966 -1088 0
-966 -1089 0
-967 -971 0
-967 -972 0
-967 -973 0
-967 -974 0
-967 -975 0
-967 -976 0
-967 -977 0
-967 -979 0
-967 -980 0
-967 -1082 0
-967 -1083 0
-967 -1084 0
-967 -1085 0
-967 -1086 0
-967 -1087 0
-967 -1088 0
-967 -1089 0
-967 -1090 0
-968 -971 0
-968 -973 0
-968 -974 0
-968 -976 0
-968 -977 0
-968 -978 0
-968 -979 0
-968 -980 0
-968 -1081 0
-968 -1083 0
-968 -1084 0
-968 -1086 0
-968 -1087 0
-968 -1088 0
-968 -1089 0
-968 -1090 0
-969 -971 0
-969 -972 0
-969 -973 0
-969 -974 0
-969 -975 0
-969 -976 0
-969 -977 0
-969 -978 0
-969 -979 0
-969 -1081 0
-969 -1082 0
-969 -1083 0
-969 -1085 0
-969 -1086 0
-969 -1087 0
-969 -1088 0
-969 -1089 0
-970 -972 0
-970 -973 0
-970 -974 0
-970 -975 0
-970 -976 0
-970 -977 0
-970 -978 0
-970 -979 0
-970 -980 0
-970 -1082 0
-970 -1083 0
-970 -1084 0
-970 -1085 0
-970 -1086 0
-970 -1087 0
-970 -1088 0
-970 -1089 0
-970 -1090 0
-971 -981 0
-971 -983 0
-971 -984 0
-971 -986 0
-971 -987 0
-971 -988 0
-971 -989 0
-971 -990 0
-971 -1091 0
-971 -1093 0
-971 -1094 0
-971 -1096 0
-971 -1097 0
-971 -1098 0
-971 -1099 0
-971 -1100 0
-972 -981 0
-972 -982 0
-972 -984 0
-972 -985 0
-972 -986 0
-972 -987 0
-972 -988 0
-972 -989 0
-972 -990 0
-972 -1091 0
-972 -1092 0
-972 -1093 0
-972 -1094 0
-972 -1095 0
-972 -1097 0
-972 -1098 0
-972 -1099 0
-972 -1100 0
-973 -981 0
-973 -982 0
-973 -983 0
-973 -985 0
-973 -986 0
-973 -987 0
-973 -988 0
-973 -989 0
-973 -990 0
-973 -1091 0
-973 -1092 0
-973 -1093 0
-973 -1094 0
-973 -1095 0
-973 -1096 0
-973 -1098 0
-973 -1099 0
-973 -1100 0
-974 -982 0
-974 -983 0
-974 -984 0
-974 -985 0
-974 -986 0
-974 -987 0
-974 -988 0
-974 -989 0
-974 -990 0
-974 -1091 0
-974 -1092 0
-974 -1093 0
-974 -1094 0
-974 -1095 0
-974 -1096 0
-974 -1097 0
-974 -1099 0
-974 -1100 0
-975 -981 0
-975 -982 0
-975 -983 0
-975 -984 0
-975 -985 0
-975 -987 0
-975 -988 0
-975 -990 0
-975 -1091 0
-975 -1092 0
-975 -1094 0
-975 -1095 0
-975 -1096 0
-975 -1097 0
-975 -1098 0
-975 -1100 0
-976 -981 0
-976 -982 0
-976 -983 0
-976 -984 0
-976 -985 0
-976 -986 0
-976 -988 0
-976 -989 0
-976 -990 0
-976 -1091 0
-976 -1092 0
-976 -1093 0
-976 -1095 0
-976 -1096 0
-976 -1097 0
-976 -1098 0
-976 -1099 0
-977 -981 0
-977 -982 0
-977 -983 0
-977 -984 0
-977 -985 0
-977 -986 0
-977 -987 0
-977 -989 0
-977 -990 0
-977 -1092 0
-977 -1093 0
-977 -1094 0
-977 -1095 0
-977 -1096 0
-977 -1097 0
-977 -1098 0
-977 -1099 0
-977 -1100 0
-978 -981 0
-978 -983 0
-978 -984 0
-978 -986 0
-978 -987 0
-978 -988 0
-978 -989 0
-978 -990 0
-978 -1091 0
-978 -1093 0
-978 -1094 0
-978 -1096 0
-978 -1097 0
-978 -1098 0
-978 -1099 0
-978 -1100 0
-979 -981 0
-979 -982 0
-979 -983 0
-979 -984 0
-979 -985 0
-979 -986 0
-979 -987 0
-979 -988 0
-979 -989 0
-979 -1091 0
-979 -1092 0
-979 -1093 0
-979 -1095 0
-979 -1096 0
-979 -1097 0
-979 -1098 0
-979 -1099 0
-980 -982 0
-980 -983 0
-980 -984 0
-980 -985 0
-980 -986 0
-980 -987 0
-980 -988 0
-980 -989 0
-980 -990 0
-980 -1092 0
-980 -1093 0
-980 -1094 0
-980 -1095 0
-980 -1096 0
-980 -1097 0
-980 -1098 0
-980 -1099 0
-980 -1100 0
-981 -991 0
-981 -993 0
-981 -994 0
-981 -996 0
-981 -997 0
-981 -998 0
-981 -999 0
-981 -1000 0
-981 -1101 0
-981 -1103 0
-981 -1104 0
-981 -1106 0
-981 -1107 0
-981 -1108 0
-981 -1109 0
-981 -1110 0
-982 -991 0
-982 -992 0
-982 -994 0
-982 -995 0
-982 -996 0
-982 -997 0
-982 -998 0
-982 -999 0
-982 -1000 0
-982 -1101 0
-982 -1102 0
-982 -1103 0
-982 -1104 0
-982 -1105 0
-982 -1107 0
-982 -1108 0
-982 -1109 0
-982 -1110 0
-983 -991 0
-983 -992 0
-983 -993 0
-983 -995 0
-983 -996 0
-983 -997 0
-983 -998 0
-983 -999 0
-983 -1000 0
-983 -1101 0
-983 -1102 0
-983 -1103 0
-983 -1104 0
-983 -1105 0
-983 -1106 0
-983 -1108 0
-983 -1109 0
-983 -1110 0
-984 -992 0
-984 -993 0
-984 -994 0
-984 -995 0
-984 -996 0
-984 -997 0
-984 -998 0
-984 -999 0
-984 -1000 0
-984 -1101 0
-984 -1102 0
-984 -1103 0
-984 -1104 0
-984 -1105 0
-984 -1106 0
-984 -1107 0
-984 -1109 0
-984 -1110 0
-985 -991 0
-985 -992 0
-985 -993 0
-985 -994 0
-985 -995 0
-985 -997 0
-985 -998 0
-985 -1000 0
-985 -1101 0
-985 -1102 0
-985 -1104 0
-985 -1105 0
-985 -1106 0
-985 -1107 0
-985 -1108 0
-985 -1110 0
-986 -991 0
-986 -992 0
-986 -993 0
-986 -994 0
-986 -995 0
-986 -996 0
-986 -998 0
-986 -999 0
-986 -1000 0
-986 -1101 0
-986 -1102 0
-986 -1103 0
-986 -1105 0
-986 -1106 0
-986 -1107 0
-986 -1108 0
-986 -1109 0
-987 -991 0
-987 -992 0
-987 -993 0
-987 -994 0
-987 -995 0
-987 -996 0
-987 -997 0
-987 -999 0
-987 -1000 0
-987 -1102 0
-987 -1103 0
-987 -1104 0
-987 -1105 0
-987 -1106 0
-987 -1107 0
-987 -1108 0
-987 -1109 0
-987 -1110 0
-988 -991 0
-988 -993 0
-988 -994 0
-988 -996 0
-988 -997 0
-988 -998 0
-988 -999 0
-988 -1000 0
-988 -1101 0
-988 -1103 0
-988 -1104 0
-988 -1106 0
-988 -1107 0
-988 -1108 0
-988 -1109 0
-988 -1110 0
-989 -991 0
-989 -992 0
-989 -993 0
-989 -994 0
-989 -995 0
-989 -996 0
-989 -997 0
-989 -998 0
-989 -999 0
-989 -1101 0
-989 -1102 0
-989 -1103 0
-989 -1105 0
-989 -1106 0
-989 -1107 0
-989 -1108 0
-989 -1109 0
-990 -992 0
-990 -993 0
-990 -994 0
-990 -995 0
-990 -996 0
-990 -997 0
-990 -998 0
-990 -999 0
-990 -1000 0
-990 -1102 0
-990 -1103 0
-990 -1104 0
-990 -1105 0
-990 -1106 0
-990 -1107 0
-990 -1108 0
-990 -1109 0
-990 -1110 0
-991 -1001 0
-991 -1003 0
-991 -1004 0
-991 -1006 0
-991 -1007 0
-991 -1008 0
-991 -1009 0
-991 -1010 0
-991 -1111 0
-991 -1113 0
-991 -1114 0
-991 -1116 0
-991 -1117 0
-991 -1118 0
-991 -1119 0
-991 -1120 0
-992 -1001 0
-992 -1002 0
-992 -1004 0
-992 -1005 0
-992 -1006 0
-992 -1007 0
-992 -1008 0
-992 -1009 0
-992 -1010 0
-992 -1111 0
-992 -1112 0
-992 -1113 0
-992 -1114 0
-992 -1115 0
-992 -1117 0
-992 -1118 0
-992 -1119 0
-992 -1120 0
-993 -1001 0
-993 -1002 0
-993 -1003 0
-993 -1005 0
-993 -1006 0
-993 -1007 0
-993 -1008 0
-993 -1009 0
-993 -1010 0
-993 -1111 0
-993 -1112 0
-993 -1113 0
-993 -1114 0
-993 -1115 0
-993 -1116 0
-993 -1118 0
-993 -1119 0
-993 -1120 0
-994 -1002 0
-994 -1003 0
-994 -1004 0
-994 -1005 0
-994 -1006 0
-994 -1007 0
-994 -1008 0
-994 -1009 0
-994 -1010 0
-994 -1111 0
-994 -1112 0
-994 -1113 0
-994 -1114 0
-994 -1115 0
-994 -1116 0
-994 -1117 0
-994 -1119 0
-994 -1120 0
-995 -1001 0
-995 -1002 0
-995 -1003 0
-995 -1004 0
-995 -1005 0
-995 -1007 0
-995 -1008 0
-995 -1010 0
-995 -1111 0
-995 -1112 0
-995 -1114 0
-995 -1115 0
-995 -1116 0
-995 -1117 0
-995 -1118 0
-995 -1120 0
-996 -1001 0
-996 -1002 0
-996 -1003 0
-996 -1004 0
-996 -1005 0
-996 -1006 0
-996 -1008 0
-996 -1009 0
-996 -1010 0
-996 -1111 0
-996 -1112 0
-996 -1113 0
-996 -1115 0
-996 -1116 0
-996 -1117 0
-996 -1118 0
-996 -1119 0
-997 -1001 0
-997 -1002 0
-997 -1003 0
-997 -1004 0
-997 -1005 0
-997 -1006 0
-997 -1007 0
-997 -1009 0
-997 -1010 0
-997 -1112 0
-997 -1113 0
-997 -1114 0
-997 -1115 0
-997 -1116 0
-997 -1117 0
-997 -1118 0
-997 -1119 0
-997 -1120 0
-998 -1001 0
-998 -1003 0
-998 -1004 0
-998 -1006 0
-998 -1007 0
-998 -1008 0
-998 -1009 0
-998 -1010 0
-998 -1111 0
-998 -1113 0
-998 -1114 0
-998 -1116 0
-998 -1117 0
-998 -1118 0
-998 -1119 0
-998 -1120 0
-999 -1001 0
-999 -1002 0
-999 -1003 0
-999 -1004 0
-999 -1005 0
-999 -1006 0
-999 -1007 0
-999 -1008 0
-999 -1009 0
-999 -1111 0
-999 -1112 0
-999 -1113 0
-999 -1115 0
-999 -1116 0
-999 -1117 0
-999 -1118 0
-999 -1119 0
-1000 -1002 0
-1000 -1003 0
-1000 -1004 0
-1000 -1005 0
-1000 -1006 0
-1000 -1007 0
-1000 -1008 0
-1000 -1009 0
-1000 -1010 0
-1000 -1112 0
-1000 -1113 0
-1000 -1114 0
-1000 -1115 0
-1000 -1116 0
-1000 -1117 0
-1000 -1118 0
-1000 -1119 0
-1000 -1120 0
-1001 -1011 0
-1001 -1013 0
-1001 -1014 0
-1001 -1016 0
-1001 -1017 0
-1001 -1018 0
-1001 -1019 0
-1001 -1020 0
-1001 -1121 0
-1001 -1123 0
-1001 -1124 0
-1001 -1126 0
-1001 -1127 0
-1001 -1128 0
-1001 -1129 0
-1001 -1130 0
-1002 -1011 0
-1002 -1012 0
-1002 -1014 0
-1002 -1015 0
-1002 -1016 0
-1002 -1017 0
-1002 -1018 0
-1002 -1019 0
-1002 -1020 0
-1002 -1121 0
-1002 -1122 0
-1002 -1123 0
-1002 -1124 0
-1002 -1125 0
-1002 -1127 0
-1002 -1128 0
-1002 -1129 0
-1002 -1130 0
-1003 -1011 0
-1003 -1012 0
-1003 -1013 0
-1003 -1015 0
-1003 -1016 0
-1003 -1017 0
-1003 -1018 0
-1003 -1019 0
-1003 -1020 0
-1003 -1121 0
-1003 -1122 0
-1003 -1123 0
-1003 -1124 0
-1003 -1125 0
-1003 -1126 0
-1003 -1128 0
-1003 -1129 0
-1003 -1130 0
-1004 -1012 0
-1004 -1013 0
-1004 -1014 0
-1004 -1015 0
-1004 -1016 0
-1004 -1017 0
-1004 -1018 0
-1004 -1019 0
-1004 -1020 0
-1004 -1121 0
-1004 -1122 0
-1004 -1123 0
-1004 -1124 0
-1004 -1125 0
-1004 -1126 0
-1004 -1127 0
-1004 -1129 0
-1004 -1130 0
-1005 -1011 0
-1005 -1012 0
-1005 -1013 0
-1005 -1014 0
-1005 -1015 0
-1005 -1017 0
-1005 -1018 0
-1005 -1020 0
-1005 -1121 0
-1005 -1122 0
-1005 -1124 0
-1005 -1125 0
-1005 -1126 0
-1005 -1127 0
-1005 -1128 0
-1005 -1130 0
-1006 -1011 0
-1006 -1012 0
-1006 -1013 0
-1006 -1014 0
-1006 -1015 0
-1006 -1016 0
-1006 -1018 0
-1006 -1019 0
-1006 -1020 0
-1006 -1121 0
-1006 -1122 0
-1006 -1123 0
-1006 -1125 0
-1006 -1126 0
-1006 -1127 0
-1006 -1128 0
-1006 -1129 0
-1007 -1011 0
-1007 -1012 0
-1007 -1013 0
-1007 -1014 0
-1007 -1015 0
-1007 -1016 0
-1007 -1017 0
-1007 -1019 0
-1007 -1020 0
-1007 -1122 0
-1007 -1123 0
-1007 -1124 0
-1007 -1125 0
-1007 -1126 0
-1007 -1127 0
-1007 -1128 0
-1007 -1129 0
-1007 -1130 0
-1008 -1011 0
-1008 -1013 0
-1008 -1014 0
-1008 -1016 0
-1008 -1017 0
-1008 -1018 0
-1008 -1019 0
-1008 -1020 0
-1008 -1121 0
-1008 -1123 0
-1008 -1124 0
-1008 -1126 0
-1008 -1127 0
-1008 -1128 0
-1008 -1129 0
-1008 -1130 0
-1009 -1011 0
-1009 -1012 0
-1009 -1013 0
-1009 -1014 0
-1009 -1015 0
-1009 -1016 0
-1009 -1017 0
-1009 -1018 0
-1009 -1019 0
-1009 -1121 0
-1009 -1122 0
-1009 -1123 0
-1009 -1125 0
-1009 -1126 0
-1009 -1127 0
-1009 -1128 0
-1009 -1129 0
-1010 -1012 0
-1010 -1013 0
-1010 -1014 0
-1010 -1015 0
-1010 -1016 0
-1010 -1017 0
-1010 -1018 0
-1010 -1019 0
-1010 -1020 0
-1010 -1122 0
-1010 -1123 0
-1010 -1124 0
-1010 -1125 0
-1010 -1126 0
-1010 -1127 0
-1010 -1128 0
-1010 -1129 0
-1010 -1130 0
-1011 -1021 0
-1011 -1023 0
-1011 -1024 0
-1011 -1026 0
-1011 -1027 0
-1011 -1028 0
-1011 -1029 0
-1011 -1030 0
-1011 -1131 0
-1011 -1133 0
-1011 -1134 0
-1011 -1136 0
-1011 -1137 0
-1011 -1138 0
-1011 -1139 0
-1011 -1140 0
-1012 -1021 0
-1012 -1022 0
-1012 -1024 0
-1012 -1025 0
-1012 -1026 0
-1012 -1027 0
-1012 -1028 0
-1012 -1029 0
-1012 -1030 0
-1012 -1131 0
-1012 -1132 0
-1012 -1133 0
-1012 -1134 0
-1012 -1135 0
-1012 -1137 0
-1012 -1138 0
-1012 -1139 0
-1012 -1140 0
-1013 -1021 0
-1013 -1022 0
-1013 -1023 0
-1013 -1025 0
-1013 -1026 0
-1013 -1027 0
-1013 -1028 0
-1013 -1029 0
-1013 -1030 0
-1013 -1131 0
-1013 -1132 0
-1013 -1133 0
-1013 -1134 0
-1013 -1135 0
-1013 -1136 0
-1013 -1138 0
-1013 -1139 0
-1013 -1140 0
-1014 -1022 0
-1014 -1023 0
-1014 -1024 0
-1014 -1025 0
-1014 -1026 0
-1014 -1027 0
-1014 -1028 0
-1014 -1029 0
-1014 -1030 0
-1014 -1131 0
-1014 -1132 0
-1014 -1133 0
-1014 -1134 0
-1014 -1135 0
-1014 -1136 0
-1014 -1137 0
-1014 -1139 0
-1014 -1140 0
-1015 -1021 0
-1015 -1022 0
-1015 -1023 0
-1015 -1024 0
-1015 -1025 0
-1015 -1027 0
-1015 -1028 0
-1015 -1030 0
-1015 -1131 0
-1015 -1132 0
-1015 -1134 0
-1015 -1135 0
-1015 -1136 0
-1015 -1137 0
-1015 -1138 0
-1015 -1140 0
-1016 -1021 0
-1016 -1022 0
-1016 -1023 0
-1016 -1024 0
-1016 -1025 0
-1016 -1026 0
-1016 -1028 0
-1016 -1029 0
-1016 -1030 0
-1016 -1131 0
-1016 -1132 0
-1016 -1133 0
-1016 -1135 0
-1016 -1136 0
-1016 -1137 0
-1016 -1138 0
-1016 -1139 0
-1017 -1021 0
-1017 -1022 0
-1017 -1023 0
-1017 -1024 0
-1017 -1025 0
-1017 -1026 0
-1017 -1027 0
-1017 -1029 0
-1017 -1030 0
-1017 -1132 0
-1017 -1133 0
-1017 -1134 0
-1017 -1135 0
-1017 -1136 0
-1017 -1137 0
-1017 -1138 0
-1017 -1139 0
-1017 -1140 0
-1018 -1021 0
-1018 -1023 0
-1018 -1024 0
-1018 -1026 0
-1018 -1027 0
-1018 -1028 0
-1018 -1029 0
-1018 -1030 0
-1018 -1131 0
-1018 -1133 0
-1018 -1134 0
-1018 -1136 0
-1018 -1137 0
-1018 -1138 0
-1018 -1139 0
-1018 -1140 0
-1019 -1021 0
-1019 -1022 0
-1019 -1023 0
-1019 -1024 0
-1019 -1025 0
-1019 -1026 0
-1019 -1027 0
-1019 -1028 0
-1019 -1029 0
-1019 -1131 0
-1019 -1132 0
-1019 -1133 0
-1019 -1135 0
-1019 -1136 0
-1019 -1137 0
-1019 -1138 0
-1019 -1139 0
-1020 -1022 0
-1020 -1023 0
-1020 -1024 0
-1020 -1025 0
-1020 -1026 0
-1020 -1027 0
-1020 -1028 0
-1020 -1029 0
-1020 -1030 0
-1020 -1132 0
-1020 -1133 0
-1020 -1134 0
-1020 -1135 0
-1020 -1136 0
-1020 -1137 0
-1020 -1138 0
-1020 -1139 0
-1020 -1140 0
-1021 -1031 0
-1021 -1033 0
-1021 -1034 0
-1021 -1036 0
-1021 -1037 0
-1021 -1038 0
-1021 -1039 0
-1021 -1040 0
-1021 -1141 0
-1021 -1143 0
-1021 -1144 0
-1021 -1146 0
-1021 -1147 0
-1021 -1148 0
-1021 -1149 0
-1021 -1150 0
-1022 -1031 0
-1022 -1032 0
-1022 -1034 0
-1022 -1035 0
-1022 -1036 0
-1022 -1037 0
-1022 -1038 0
-1022 -1039 0
-1022 -1040 0
-1022 -1141 0
-1022 -1142 0
-1022 -1143 0
-1022 -1144 0
-1022 -1145 0
-1022 -1147 0
-1022 -1148 0
-1022 -1149 0
-1022 -1150 0
-1023 -1031 0
-1023 -1032 0
-1023 -1033 0
-1023 -1035 0
-1023 -1036 0
-1023 -1037 0
-1023 -1038 0
-1023 -1039 0
-1023 -1040 0
-1023 -1141 0
-1023 -1142 0
-1023 -1143 0
-1023 -1144 0
-1023 -1145 0
-1023 -1146 0
-1023 -1148 0
-1023 -1149 0
-1023 -1150 0
-1024 -1032 0
-1024 -1033 0
-1024 -1034 0
-1024 -1035 0
-1024 -1036 0
-1024 -1037 0
-1024 -1038 0
-1024 -1039 0
-1024 -1040 0
-1024 -1141 0
-1024 -1142 0
-1024 -1143 0
-1024 -1144 0
-1024 -1145 0
-1024 -1146 0
-1024 -1147 0
-1024 -1149 0
-1024 -1150 0
-1025 -1031 0
-1025 -1032 0
-1025 -1033 0
-1025 -1034 0
-1025 -1035 0
-1025 -1037 0
-1025 -1038 0
-1025 -1040 0
-1025 -1141 0
-1025 -1142 0
-1025 -1144 0
-1025 -1145 0
-1025 -1146 0
-1025 -1147 0
-1025 -1148 0
-1025 -1150 0
-1026 -1031 0
-1026 -1032 0
-1026 -1033 0
-1026 -1034 0
-1026 -1035 0
-1026 -1036 0
-1026 -1038 0
-1026 -1039 0
-1026 -1040 0
-1026 -1141 0
-1026 -1142 0
-1026 -1143 0
-1026 -1145 0
-1026 -1146 0
-1026 -1147 0
-1026 -1148 0
-1026 -1149 0
-1027 -1031 0
-1027 -1032 0
-1027 -1033 0
-1027 -1034 0
-1027 -1035 0
-1027 -1036 0
-1027 -1037 0
-1027 -1039 0
-1027 -1040 0
-1027 -1142 0
-1027 -1143 0
-1027 -1144 0
-1027 -1145 0
-1027 -1146 0
-1027 -1147 0
-1027 -1148 0
-1027 -1149 0
-1027 -1150 0
-1028 -1031 0
-1028 -1033 0
-1028 -1034 0
-1028 -1036 0
-1028 -1037 0
-1028 -1038 0
-1028 -1039 0
-1028 -1040 0
-1028 -1141 0
-1028 -1143 0
-1028 -1144 0
-1028 -1146 0
-1028 -1147 0
-1028 -1148 0
-1028 -1149 0
-1028 -1150 0
-1029 -1031 0
-1029 -1032 0
-1029 -1033 0
-1029 -1034 0
-1029 -1035 0
-1029 -1036 0
-1029 -1037 0
-1029 -1038 0
-1029 -1039 0
-1029 -1141 0
-1029 -1142 0
-1029 -1143 0
-1029 -1145 0
-1029 -1146 0
-1029 -1147 0
-1029 -1148 0
-1029 -1149 0
-1030 -1032 0
-1030 -1033 0
-1030 -1034 0
-1030 -1035 0
-1030 -1036 0
-1030 -1037 0
-1030 -1038 0
-1030 -1039 0
-1030 -1040 0
-1030 -1142 0
-1030 -1143 0
-1030 -1144 0
-1030 -1145 0
-1030 -1146 0
-1030 -1147 0
-1030 -1148 0
-1030 -1149 0
-1030 -1150 0
-1031 -1041 0
-1031 -1043 0
-1031 -1044 0
-1031 -1046 0
-1031 -1047 0
-1031 -1048 0
-1031 -1049 0
-1031 -1050 0
-1031 -1151 0
-1031 -1153 0
-1031 -1154 0
-1031 -1156 0
-1031 -1157 0
-1031 -1158 0
-1031 -1159 0
-1031 -1160 0
-1032 -1041 0
-1032 -1042 0
-1032 -1044 0
-1032 -1045 0
-1032 -1046 0
-1032 -1047 0
-1032 -1048 0
-1032 -1049 0
-1032 -1050 0
-1032 -1151 0
-1032 -1152 0
-1032 -1153 0
-1032 -1154 0
-1032 -1155 0
-1032 -1157 0
-1032 -1158 0
-1032 -1159 0
-1032 -1160 0
-1033 -1041 0
-1033 -1042 0
-1033 -1043 0
-1033 -1045 0
-1033 -1046 0
-1033 -1047 0
-1033 -1048 0
-1033 -1049 0
-1033 -1050 0
-1033 -1151 0
-1033 -1152 0
-1033 -1153 0
-1033 -1154 0
-1033 -1155 0
-1033 -1156 0
-1033 -1158 0
-1033 -1159 0
-1033 -1160 0
-1034 -1042 0
-1034 -1043 0
-1034 -1044 0
-1034 -1045 0
-1034 -1046 0
-1034 -1047 0
-1034 -1048 0
-1034 -1049 0
-1034 -1050 0
-1034 -1151 0
-1034 -1152 0
-1034 -1153 0
-1034 -1154 0
-1034 -1155 0
-1034 -1156 0
-1034 -1157 0
-1034 -1159 0
-1034 -1160 0
-1035 -1041 0
-1035 -1042 0
-1035 -1043 0
-1035 -1044 0
-1035 -1045 0
-1035 -1047 0
-1035 -1048 0
-1035 -1050 0
-1035 -1151 0
-1035 -1152 0
-1035 -1154 0
-1035 -1155 0
-1035 -1156 0
-1035 -1157 0
-1035 -1158 0
-1035 -1160 0
-1036 -1041 0
-1036 -1042 0
-1036 -1043 0
-1036 -1044 0
-1036 -1045 0
-1036 -1046 0
-1036 -1048 0
-1036 -1049 0
-1036 -1050 0
-1036 -1151 0
-1036 -1152 0
-1036 -1153 0
-1036 -1155 0
-1036 -1156 0
-1036 -1157 0
-1036 -1158 0
-1036 -1159 0
-1037 -1041 0
-1037 -1042 0
-1037 -1043 0
-1037 -1044 0
-1037 -1045 0
-1037 -1046 0
-1037 -1047 0
-1037 -1049 0
-1037 -1050 0
-1037 -1152 0
-1037 -1153 0
-1037 -1154 0
-1037 -1155 0
-1037 -1156 0
-1037 -1157 0
-1037 -1158 0
-1037 -1159 0
-1037 -1160 0
-1038 -1041 0
-1038 -1043 0
-1038 -1044 0
-1038 -1046 0
-1038 -1047 0
-1038 -1048 0
-1038 -1049 0
-1038 -1050 0
-1038 -1151 0
-1038 -1153 0
-1038 -1154 0
-1038 -1156 0
-1038 -1157 0
-1038 -1158 0
-1038 -1159 0
-1038 -1160 0
-1039 -1041 0
-1039 -1042 0
-1039 -1043 0
-1039 -1044 0
-1039 -1045 0
-1039 -1046 0
-1039 -1047 0
-1039 -1048 0
-1039 -1049 0
-1039 -1151 0
-1039 -1152 0
-1039 -1153 0
-1039 -1155 0
-1039 -1156 0
-1039 -1157 0
-1039 -1158 0
-1039 -1159 0
-1040 -1042 0
-1040 -1043 0
-1040 -1044 0
-1040 -1045 0
-1040 -1046 0
-1040 -1047 0
-1040 -1048 0
-1040 -1049 0
-1040 -1050 0
-1040 -1152 0
-1040 -1153 0
-1040 -1154 0
-1040 -1155 0
-1040 -1156 0
-1040 -1157 0
-1040 -1158 0
-1040 -1159 0
-1040 -1160 0
-1041 -1051 0
-1041 -1053 0
-1041 -1054 0
-1041 -1056 0
-1041 -1057 0
-1041 -1058 0
-1041 -1059 0
-1041 -1060 0
-1041 -1161 0
-1041 -1163 0
-1041 -1164 0
-1041 -1166 0
-1041 -1167 0
-1041 -1168 0
-1041 -1169 0
-1041 -1170 0
-1042 -1051 0
-1042 -1052 0
-1042 -1054 0
-1042 -1055 0
-1042 -1056 0
-1042 -1057 0
-1042 -1058 0
-1042 -1059 0
-1042 -1060 0
-1042 -1161 0
-1042 -1162 0
-1042 -1163 0
-1042 -1164 0
-1042 -1165 0
-1042 -1167 0
-1042 -1168 0
-1042 -1169 0
-1042 -1170 0
-1043 -1051 0
-1043 -1052 0
-1043 -1053 0
-1043 -1055 0
-1043 -1056 0
-1043 -1057 0
-1043 -1058 0
-1043 -1059 0
-1043 -1060 0
-1043 -1161 0
-1043 -1162 0
-1043 -1163 0
-1043 -1164 0
-1043 -1165 0
-1043 -1166 0
-1043 -1168 0
-1043 -1169 0
-1043 -1170 0
-1044 -1052 0
-1044 -1053 0
-1044 -1054 0
-1044 -1055 0
-1044 -1056 0
-1044 -1057 0
-1044 -1058 0
-1044 -1059 0
-1044 -1060 0
-1044 -1161 0
-1044 -1162 0
-1044 -1163 0
-1044 -1164 0
-1044 -1165 0
-1044 -1166 0
-1044 -1167 0
-1044 -1169 0
-1044 -1170 0
-1045 -1051 0
-1045 -1052 0
-1045 -1053 0
-1045 -1054 0
-1045 -1055 0
-1045 -1057 0
-1045 -1058 0
-1045 -1060 0
-1045 -1161 0
-1045 -1162 0
-1045 -1164 0
-1045 -1165 0
-1045 -1166 0
-1045 -1167 0
-1045 -1168 0
-1045 -1170 0
-1046 -1051 0
-1046 -1052 0
-1046 -1053 0
-1046 -1054 0
-1046 -1055 0
-1046 -1056 0
-1046 -1058 0
-1046 -1059 0
-1046 -1060 0
-1046 -1161 0
-1046 -1162 0
-1046 -1163 0
-1046 -1165 0
-1046 -1166 0
-1046 -1167 0
-1046 -1168 0
-1046 -1169 0
-1047 -1051 0
-1047 -1052 0
-1047 -1053 0
-1047 -1054 0
-1047 -1055 0
-1047 -1056 0
-1047 -1057 0
-1047 -1059 0
-1047 -1060 0
-1047 -1162 0
-1047 -1163 0
-1047 -1164 0
-1047 -1165 0
-1047 -1166 0
-1047 -1167 0
-1047 -1168 0
-1047 -1169 0
-1047 -1170 0
-1048 -1051 0
-1048 -1053 0
-1048 -1054 0
-1048 -1056 0
-1048 -1057 0
-1048 -1058 0
-1048 -1059 0
-1048 -1060 0
-1048 -1161 0
-1048 -1163 0
-1048 -1164 0
-1048 -1166 0
-1048 -1167 0
-1048 -1168 0
-1048 -1169 0
-1048 -1170 0
-1049 -1051 0
-1049 -1052 0
-1049 -1053 0
-1049 -1054 0
-1049 -1055 0
-1049 -1056 0
-1049 -1057 0
-1049 -1058 0
-1049 -1059 0
-1049 -1161 0
-1049 -1162 0
-1049 -1163 0
-1049 -1165 0
-1049 -1166 0
-1049 -1167 0
-1049 -1168 0
-1049 -1169 0
-1050 -1052 0
-1050 -1053 0
-1050 -1054 0
-1050 -1055 0
-1050 -1056 0
-1050 -1057 0
-1050 -1058 0
-1050 -1059 0
-1050 -1060 0
-1050 -1162 0
-1050 -1163 0
-1050 -1164 0
-1050 -1165 0
-1050 -1166 0
-1050 -1167 0
-1050 -1168 0
-1050 -1169 0
-1050 -1170 0
-1051 -1061 0
-1051 -1063 0
-1051 -1064 0
-1051 -1066 0
-1051 -1067 0
-1051 -1068 0
-1051 -1069 0
-1051 -1070 0
-1051 -1171 0
-1051 -1173 0
-1051 -1174 0
-1051 -1176 0
-1051 -1177 0
-1051 -1178 0
-1051 -1179 0
-1051 -1180 0
-1052 -1061 0
-1052 -1062 0
-1052 -1064 0
-1052 -1065 0
-1052 -1066 0
-1052 -1067 0
-1052 -1068 0
-1052 -1069 0
-1052 -1070 0
-1052 -1171 0
-1052 -1172 0
-1052 -1173 0
-1052 -1174 0
-1052 -1175 0
-1052 -1177 0
-1052 -1178 0
-1052 -1179 0
-1052 -1180 0
-1053 -1061 0
-1053 -1062 0
-1053 -1063 0
-1053 -1065 0
-1053 -1066 0
-1053 -1067 0
-1053 -1068 0
-1053 -1069 0
-1053 -1070 0
-1053 -1171 0
-1053 -1172 0
-1053 -1173 0
-1053 -1174 0
-1053 -1175 0
-1053 -1176 0
-1053 -1178 0
-1053 -1179 0
-1053 -1180 0
-1054 -1062 0
-1054 -1063 0
-1054 -1064 0
-1054 -1065 0
-1054 -1066 0
-1054 -1067 0
-1054 -1068 0
-1054 -1069 0
-1054 -1070 0
-1054 -1171 0
-1054 -1172 0
-1054 -1173 0
-1054 -1174 0
-1054 -1175 0
-1054 -1176 0
-1054 -1177 0
-1054 -1179 0
-1054 -1180 0
-1055 -1061 0
-1055 -1062 0
-1055 -1063 0
-1055 -1064 0
-1055 -1065 0
-1055 -1067 0
-1055 -1068 0
-1055 -1070 0
-1055 -1171 0
-1055 -1172 0
-1055 -1174 0
-1055 -1175 0
-1055 -1176 0
-1055 -1177 0
-1055 -1178 0
-1055 -1180 0
-1056 -1061 0
-1056 -1062 0
-1056 -1063 0
-1056 -1064 0
-1056 -1065 0
-1056 -1066 0
-1056 -1068 0
-1056 -1069 0
-1056 -1070 0
-1056 -1171 0
-1056 -1172 0
-1056 -1173 0
-1056 -1175 0
-1056 -1176 0
-1056 -1177 0
-1056 -1178 0
-1056 -1179 0
-1057 -1061 0
-1057 -1062 0
-1057 -1063 0
-1057 -1064 0
-1057 -1065 0
-1057 -1066 0
-1057 -1067 0
-1057 -1069 0
-1057 -1070 0
-1057 -1172 0
-1057 -1173 0
-1057 -1174 0
-1057 -1175 0
-1057 -1176 0
-1057 -1177 0
-1057 -1178 0
-1057 -1179 0
-1057 -1180 0
-1058 -1061 0
-1058 -1063 0
-1058 -1064 0
-1058 -1066 0
-1058 -1067 0
-1058 -1068 0
-1058 -1069 0
-1058 -1070 0
-1058 -1171 0
-1058 -1173 0
-1058 -1174 0
-1058 -1176 0
-1058 -1177 0
-1058 -1178 0
-1058 -1179 0
-1058 -1180 0
-1059 -1061 0
-1059 -1062 0
-1059 -1063 0
-1059 -1064 0
-1059 -1065 0
-1059 -1066 0
-1059 -1067 0
-1059 -1068 0
-1059 -1069 0
-1059 -1171 0
-1059 -1172 0
-1059 -1173 0
-1059 -1175 0
-1059 -1176 0
-1059 -1177 0
-1059 -1178 0
-1059 -1179 0
-1060 -1062 0
-1060 -1063 0
-1060 -1064 0
-1060 -1065 0
-1060 -1066 0
-1060 -1067 0
-1060 -1068 0
-1060 -1069 0
-1060 -1070 0
-1060 -1172 0
-1060 -1173 0
-1060 -1174 0
-1060 -1175 0
-1060 -1176 0
-1060 -1177 0
-1060 -1178 0
-1060 -1179 0
-1060 -1180 0
-1061 -1071 0
-1061 -1073 0
-1061 -1074 0
-1061 -1076 0
-1061 -1077 0
-1061 -1078 0
-1061 -1079 0
-1061 -1080 0
-1061 -1181 0
-1061 -1183 0
-1061 -1184 0
-1061 -1186 0
-1061 -1187 0
-1061 -1188 0
-1061 -1189 0
-1061 -1190 0
-1062 -1071 0
-1062 -1072 0
-1062 -1074 0
-1062 -1075 0
-1062 -1076 0
-1062 -1077 0
-1062 -1078 0
-1062 -1079 0
-1062 -1080 0
-1062 -1181 0
-1062 -1182 0
-1062 -1183 0
-1062 -1184 0
-1062 -1185 0
-1062 -1187 0
-1062 -1188 0
-1062 -1189 0
-1062 -1190 0
-1063 -1071 0
-1063 -1072 0
-1063 -1073 0
-1063 -1075 0
-1063 -1076 0
-1063 -1077 0
-1063 -1078 0
-1063 -1079 0
-1063 -1080 0
-1063 -1181 0
-1063 -1182 0
-1063 -1183 0
-1063 -1184 0
-1063 -1185 0
-1063 -1186 0
-1063 -1188 0
-1063 -1189 0
-1063 -1190 0
-1064 -1072 0
-1064 -1073 0
-1064 -1074 0
-1064 -1075 0
-1064 -1076 0
-1064 -1077 0
-1064 -1078 0
-1064 -1079 0
-1064 -1080 0
-1064 -1181 0
-1064 -1182 0
-1064 -1183 0
-1064 -1184 0
-1064 -1185 0
-1064 -1186 0
-1064 -1187 0
-1064 -1189 0
-1064 -1190 0
-1065 -1071 0
-1065 -1072 0
-1065 -1073 0
-1065 -1074 0
-1065 -1075 0
-1065 -1077 0
-1065 -1078 0
-1065 -1080 0
-1065 -1181 0
-1065 -1182 0
-1065 -1184 0
-1065 -1185 0
-1065 -1186 0
-1065 -1187 0
-1065 -1188 0
-1065 -1190 0
-1066 -1071 0
-1066 -1072 0
-1066 -1073 0
-1066 -1074 0
-1066 -1075 0
-1066 -1076 0
-1066 -1078 0
-1066 -1079 0
-1066 -1080 0
-1066 -1181 0
-1066 -1182 0
-1066 -1183 0
-1066 -1185 0
-1066 -1186 0
-1066 -1187 0
-1066 -1188 0
-1066 -1189 0
-1067 -1071 0
-1067 -1072 0
-1067 -1073 0
-1067 -1074 0
-1067 -1075 0
-1067 -1076 0
-1067 -1077 0
-1067 -1079 0
-1067 -1080 0
-1067 -1182 0
-1067 -1183 0
-1067 -1184 0
-1067 -1185 0
-1067 -1186 0
-1067 -1187 0
-1067 -1188 0
-1067 -1189 0
-1067 -1190 0
-1068 -1071 0
-1068 -1073 0
-1068 -1074 0
-1068 -1076 0
-1068 -1077 0
-1068 -1078 0
-1068 -1079 0
-1068 -1080 0
-1068 -1181 0
-1068 -1183 0
-1068 -1184 0
-1068 -1186 0
-1068 -1187 0
-1068 -1188 0
-1068 -1189 0
-1068 -1190 0
-1069 -1071 0
-1069 -1072 0
-1069 -1073 0
-1069 -1074 0
-1069 -1075 0
-1069 -1076 0
-1069 -1077 0
-1069 -1078 0
-1069 -1079 0
-1069 -1181 0
-1069 -1182 0
-1069 -1183 0
-1069 -1185 0
-1069 -1186 0
-1069 -1187 0
-1069 -1188 0
-1069 -1189 0
-1070 -1072 0
-1070 -1073 0
-1070 -1074 0
-1070 -1075 0
-1070 -1076 0
-1070 -1077 0
-1070 -1078 0
-1070 -1079 0
-1070 -1080 0
-1070 -1182 0
-1070 -1183 0
-1070 -1184 0
-1070 -1185 0
-1070 -1186 0
-1070 -1187 0
-1070 -1188 0
-1070 -1189 0
-1070 -1190 0
-1071 -1191 0
-1071 -1193 0
-1071 -1194 0
-1071 -1196 0
-1071 -1197 0
-1071 -1198 0
-1071 -1199 0
-1071 -1200 0
-1072 -1191 0
-1072 -1192 0
-1072 -1193 0
-1072 -1194 0
-1072 -1195 0
-1072 -1197 0
-1072 -1198 0
-1072 -1199 0
-1072 -1200 0
-1073 -1191 0
-1073 -1192 0
-1073 -1193 0
-1073 -1194 0
-1073 -1195 0
-1073 -1196 0
-1073 -1198 0
-1073 -1199 0
-1073 -1200 0
-1074 -1191 0
-1074 -1192 0
-1074 -1193 0
-1074 -1194 0
-1074 -1195 0
-1074 -1196 0
-1074 -1197 0
-1074 -1199 0
-1074 -1200 0
-1075 -1191 0
-1075 -1192 0
-1075 -1194 0
-1075 -1195 0
-1075 -1196 0
-1075 -1197 0
-1075 -1198 0
-1075 -1200 0
-1076 -1191 0
-1076 -1192 0
-1076 -1193 0
-1076 -1195 0
-1076 -1196 0
-1076 -1197 0
-1076 -1198 0
-1076 -1199 0
-1077 -1192 0
-1077 -1193 0
-1077 -1194 0
-1077 -1195 0
-1077 -1196 0
-1077 -1197 0
-1077 -1198 0
-1077 -1199 0
-1077 -1200 0
-1078 -1191 0
-1078 -1193 0
-1078 -1194 0
-1078 -1196 0
-1078 -1197 0
-1078 -1198 0
-1078 -1199 0
-1078 -1200 0
-1079 -1191 0
-1079 -1192 0
-1079 -1193 0
-1079 -1195 0
-1079 -1196 0
-1079 -1197 0
-1079 -1198 0
-1079 -1199 0
-1080 -1192 0
-1080 -1193 0
-1080 -1194 0
-1080 -1195 0
-1080 -1196 0
-1080 -1197 0
-1080 -1198 0
-1080 -1199 0
-1080 -1200 0
-1081 -1091 0
-1081 -1093 0
-1081 -1094 0
-1081 -1096 0
-1081 -1097 0
-1081 -1098 0
-1081 -1099 0
-1081 -1100 0
-1081 -1201 0
-1081 -1203 0
-1081 -1204 0
-1081 -1206 0
-1081 -1207 0
-1081 -1208 0
-1081 -1209 0
-1081 -1210 0
-1082 -1091 0
-1082 -1092 0
-1082 -1094 0
-1082 -1095 0
-1082 -1096 0
-1082 -1097 0
-1082 -1098 0
-1082 -1099 0
-1082 -1100 0
-1082 -1201 0
-1082 -1202 0
-1082 -1203 0
-1082 -1204 0
-1082 -1205 0
-1082 -1207 0
-1082 -1208 0
-1082 -1209 0
-1082 -1210 0
-1083 -1091 0
-1083 -1092 0
-1083 -1093 0
-1083 -1095 0
-1083 -1096 0
-1083 -1097 0
-1083 -1098 0
-1083 -1099 0
-1083 -1100 0
-1083 -1201 0
-1083 -1202 0
-1083 -1203 0
-1083 -1204 0
-1083 -1205 0
-1083 -1206 0
-1083 -1208 0
-1083 -1209 0
-1083 -1210 0
-1084 -1092 0
-1084 -1093 0
-1084 -1094 0
-1084 -1095 0
-1084 -1096 0
-1084 -1097 0
-1084 -1098 0
-1084 -1099 0
-1084 -1100 0
-1084 -1201 0
-1084 -1202 0
-1084 -1203 0
-1084 -1204 0
-1084 -1205 0
-1084 -1206 0
-1084 -1207 0
-1084 -1209 0
-1084 -1210 0
-1085 -1091 0
-1085 -1092 0
-1085 -1093 0
-1085 -1094 0
-1085 -1095 0
-1085 -1097 0
-1085 -1098 0
-1085 -1100 0
-1085 -1201 0
-1085 -1202 0
-1085 -1204 0
-1085 -1205 0
-1085 -1206 0
-1085 -1207 0
-1085 -1208 0
-1085 -1210 0
-1086 -1091 0
-1086 -1092 0
-1086 -1093 0
-1086 -1094 0
-1086 -1095 0
-1086 -1096 0
-1086 -1098 0
-1086 -1099 0
-1086 -1100 0
-1086 -1201 0
-1086 -1202 0
-1086 -1203 0
-1086 -1205 0
-1086 -1206 0
-1086 -1207 0
-1086 -1208 0
-1086 -1209 0
-1087 -1091 0
-1087 -1092 0
-1087 -1093 0
-1087 -1094 0
-1087 -1095 0
-1087 -1096 0
-1087 -1097 0
-1087 -1099 0
-1087 -1100 0
-1087 -1202 0
-1087 -1203 0
-1087 -1204 0
-1087 -1205 0
-1087 -1206 0
-1087 -1207 0
-1087 -1208 0
-1087 -1209 0
-1087 -1210 0
-1088 -1091 0
-1088 -1093 0
-1088 -1094 0
-1088 -1096 0
-1088 -1097 0
-1088 -1098 0
-1088 -1099 0
-1088 -1100 0
-1088 -1201 0
-1088 -1203 0
-1088 -1204 0
-1088 -1206 0
-1088 -1207 0
-1088 -1208 0
-1088 -1209 0
-1088 -1210 0
-1089 -1091 0
-1089 -1092 0
-1089 -1093 0
-1089 -1094 0
-1089 -1095 0
-1089 -1096 0
-1089 -1097 0
-1089 -1098 0
-1089 -1099 0
-1089 -1201 0
-1089 -1202 0
-1089 -1203 0
-1089 -1205 0
-1089 -1206 0
-1089 -1207 0
-1089 -1208 0
-1089 -1209 0
-1090 -1092 0
-1090 -1093 0
-1090 -1094 0
-1090 -1095 0
-1090 -1096 0
-1090 -1097 0
-1090 -1098 0
-1090 -1099 0
-1090 -1100 0
-1090 -1202 0
-1090 -1203 0
-1090 -1204 0
-1090 -1205 0
-1090 -1206 0
-1090 -1207 0
-1090 -1208 0
-1090 -1209 0
-1090 -1210 0
-1091 -1101 0
-1091 -1103 0
-1091 -1104 0
-1091 -1106 0
-1091 -1107 0
-1091 -1108 0
-1091 -1109 0
-1091 -1110 0
-1091 -1211 0
-1091 -1213 0
-1091 -1214 0
-1091 -1216 0
-1091 -1217 0
-1091 -1218 0
-1091 -1219 0
-1091 -1220 0
-1092 -1101 0
-1092 -1102 0
-1092 -1104 0
-1092 -1105 0
-1092 -1106 0
-1092 -1107 0
-1092 -1108 0
-1092 -1109 0
-1092 -1110 0
-1092 -1211 0
-1092 -1212 0
-1092 -1213 0
-1092 -1214 0
-1092 -1215 0
-1092 -1217 0
-1092 -1218 0
-1092 -1219 0
-1092 -1220 0
-1093 -1101 0
-1093 -1102 0
-1093 -1103 0
-1093 -1105 0
-1093 -1106 0
-1093 -1107 0
-1093 -1108 0
-1093 -1109 0
-1093 -1110 0
-1093 -1211 0
-1093 -1212 0
-1093 -1213 0
-1093 -1214 0
-1093 -1215 0
-1093 -1216 0
-1093 -1218 0
-1093 -1219 0
-1093 -1220 0
-1094 -1102 0
-1094 -1103 0
-1094 -1104 0
-1094 -1105 0
-1094 -1106 0
-1094 -1107 0
-1094 -1108 0
-1094 -1109 0
-1094 -1110 0
-1094 -1211 0
-1094 -1212 0
-1094 -1213 0
-1094 -1214 0
-1094 -1215 0
-1094 -1216 0
-1094 -1217 0
-1094 -1219 0
-1094 -1220 0
-1095 -1101 0
-1095 -1102 0
-1095 -1103 0
-1095 -1104 0
-1095 -1105 0
-1095 -1107 0
-1095 -1108 0
-1095 -1110 0
-1095 -1211 0
-1095 -1212 0
-1095 -1214 0
-1095 -1215 0
-1095 -1216 0
-1095 -1217 0
-1095 -1218 0
-1095 -1220 0
-1096 -1101 0
-1096 -1102 0
-1096 -1103 0
-1096 -1104 0
-1096 -1105 0
-1096 -1106 0
-1096 -1108 0
-1096 -1109 0
-1096 -1110 0
-1096 -1211 0
-1096 -1212 0
-1096 -1213 0
-1096 -1215 0
-1096 -1216 0
-1096 -1217 0
-1096 -1218 0
-1096 -1219 0
-1097 -1101 0
-1097 -1102 0
-1097 -1103 0
-1097 -1104 0
-1097 -1105 0
-1097 -1106 0
-1097 -1107 0
-1097 -1109 0
-1097 -1110 0
-1097 -1212 0
-1097 -1213 0
-1097 -1214 0
-1097 -1215 0
-1097 -1216 0
-1097 -1217 0
-1097 -1218 0
-1097 -1219 0
-1097 -1220 0
-1098 -1101 0
-1098 -1103 0
-1098 -1104 0
-1098 -1106 0
-1098 -1107 0
-1098 -1108 0
-1098 -1109 0
-1098 -1110 0
-1098 -1211 0
-1098 -1213 0
-1098 -1214 0
-1098 -1216 0
-1098 -1217 0
-1098 -1218 0
-1098 -1219 0
-1098 -1220 0
-1099 -1101 0
-1099 -1102 0
-1099 -1103 0
-1099 -1104 0
-1099 -1105 0
-1099 -1106 0
-1099 -1107 0
-1099 -1108 0
-1099 -1109 0
-1099 -1211 0
-1099 -1212 0
-1099 -1213 0
-1099 -1215 0
-1099 -1216 0
-1099 -1217 0
-1099 -1218 0
-1099 -1219 0
-1100 -1102 0
-1100 -1103 0
-1100 -1104 0
-1100 -1105 0
-1100 -1106 0
-1100 -1107 0
-1100 -1108 0
-1100 -1109 0
-1100 -1110 0
-1100 -1212 0
-1100 -1213 0
-1100 -1214 0
-1100 -1215 0
-1100 -1216 0
-1100 -1217 0
-1100 -1218 0
-1100 -1219 0
-1100 -1220 0
-1101 -1111 0
-1101 -1113 0
-1101 -1114 0
-1101 -1116 0
-1101 -1117 0
-1101 -1118 0
-1101 -1119 0
-1101 -1120 0
-1101 -1221 0
-1101 -1223 0
-1101 -1224 0
-1101 -1226 0
-1101 -1227 0
-1101 -1228 0
-1101 -1229 0
-1101 -1230 0
-1102 -1111 0
-1102 -1112 0
-1102 -1114 0
-1102 -1115 0
-1102 -1116 0
-1102 -1117 0
-1102 -1118 0
-1102 -1119 0
-1102 -1120 0
-1102 -1221 0
-1102 -1222 0
-1102 -1223 0
-1102 -1224 0
-1102 -1225 0
-1102 -1227 0
-1102 -1228 0
-1102 -1229 0
-1102 -1230 0
-1103 -1111 0
-1103 -1112 0
-1103 -1113 0
-1103 -1115 0
-1103 -1116 0
-1103 -1117 0
-1103 -1118 0
-1103 -1119 0
-1103 -1120 0
-1103 -1221 0
-1103 -1222 0
-1103 -1223 0
-1103 -1224 0
-1103 -1225 0
-1103 -1226 0
-1103 -1228 0
-1103 -1229 0
-1103 -1230 0
-1104 -1112 0
-1104 -1113 0
-1104 -1114 0
-1104 -1115 0
-1104 -1116 0
-1104 -1117 0
-1104 -1118 0
-1104 -1119 0
-1104 -1120 0
-1104 -1221 0
-1104 -1222 0
-1104 -1223 0
-1104 -1224 0
-1104 -1225 0
-1104 -1226 0
-1104 -1227 0
-1104 -1229 0
-1104 -1230 0
-1105 -1111 0
-1105 -1112 0
-1105 -1113 0
-1105 -1114 0
-1105 -1115 0
-1105 -1117 0
-1105 -1118 0
-1105 -1120 0
-1105 -1221 0
-1105 -1222 0
-1105 -1224 0
-1105 -1225 0
-1105 -1226 0
-1105 -1227 0
-1105 -1228 0
-1105 -1230 0
-1106 -1111 0
-1106 -1112 0
-1106 -1113 0
-1106 -1114 0
-1106 -1115 0
-1106 -1116 0
-1106 -1118 0
-1106 -1119 0
-1106 -1120 0
-1106 -1221 0
-1106 -1222 0
-1106 -1223 0
-1106 -1225 0
-1106 -1226 0
-1106 -1227 0
-1106 -1228 0
-1106 -1229 0
-1107 -1111 0
-1107 -1112 0
-1107 -1113 0
-1107 -1114 0
-1107 -1115 0
-1107 -1116 0
-1107 -1117 0
-1107 -1119 0
-1107 -1120 0
-1107 -1222 0
-1107 -1223 0
-1107 -1224 0
-1107 -1225 0
-1107 -1226 0
-1107 -1227 0
-1107 -1228 0
-1107 -1229 0
-1107 -1230 0
-1108 -1111 0
-1108 -1113 0
-1108 -1114 0
-1108 -1116 0
-1108 -1117 0
-1108 -1118 0
-1108 -1119 0
-1108 -1120 0
-1108 -1221 0
-1108 -1223 0
-1108 -1224 0
-1108 -1226 0
-1108 -1227 0
-1108 -1228 0
-1108 -1229 0
-1108 -1230 0
-1109 -1111 0
-1109 -1112 0
-1109 -1113 0
-1109 -1114 0
-1109 -1115 0
-1109 -1116 0
-1109 -1117 0
-1109 -1118 0
-1109 -1119 0
-1109 -1221 0
-1109 -1222 0
-1109 -1223 0
-1109 -1225 0
-1109 -1226 0
-1109 -1227 0
-1109 -1228 0
-1109 -1229 0
-1110 -1112 0
-1110 -1113 0
-1110 -1114 0
-1110 -1115 0
-1110 -1116 0
-1110 -1117 0
-1110 -1118 0
-1110 -1119 0
-1110 -1120 0
-1110 -1222 0
-1110 -1223 0
-1110 -1224 0
-1110 -1225 0
-1110 -1226 0
-1110 -1227 0
-1110 -1228 0
-1110 -1229 0
-1110 -1230 0
-1111 -1121 0
-1111 -1123 0
-1111 -1124 0
-1111 -1126 0
-1111 -1127 0
-1111 -1128 0
-1111 -1129 0
-1111 -1130 0
-1111 -1231 0
-1111 -1233 0
-1111 -1234 0
-1111 -1236 0
-1111 -1237 0
-1111 -1238 0
-1111 -1239 0
-1111 -1240 0
-1112 -1121 0
-1112 -1122 0
-1112 -1124 0
-1112 -1125 0
-1112 -1126 0
-1112 -1127 0
-1112 -1128 0
-1112 -1129 0
-1112 -1130 0
-1112 -1231 0
-1112 -1232 0
-1112 -1233 0
-1112 -1234 0
-1112 -1235 0
-1112 -1237 0
-1112 -1238 0
-1112 -1239 0
-1112 -1240 0
-1113 -1121 0
-1113 -1122 0
-1113 -1123 0
-1113 -1125 0
-1113 -1126 0
-1113 -1127 0
-1113 -1128 0
-1113 -1129 0
-1113 -1130 0
-1113 -1231 0
-1113 -1232 0
-1113 -1233 0
-1113 -1234 0
-1113 -1235 0
-1113 -1236 0
-1113 -1238 0
-1113 -1239 0
-1113 -1240 0
-1114 -1122 0
-1114 -1123 0
-1114 -1124 0
-1114 -1125 0
-1114 -1126 0
-1114 -1127 0
-1114 -1128 0
-1114 -1129 0
-1114 -1130 0
-1114 -1231 0
-1114 -1232 0
-1114 -1233 0
-1114 -1234 0
-1114 -1235 0
-1114 -1236 0
-1114 -1237 0
-1114 -1239 0
-1114 -1240 0
-1115 -1121 0
-1115 -1122 0
-1115 -1123 0
-1115 -1124 0
-1115 -1125 0
-1115 -1127 0
-1115 -1128 0
-1115 -1130 0
-1115 -1231 0
-1115 -1232 0
-1115 -1234 0
-1115 -1235 0
-1115 -1236 0
-1115 -1237 0
-1115 -1238 0
-1115 -1240 0
-1116 -1121 0
-1116 -1122 0
-1116 -1123 0
-1116 -1124 0
-1116 -1125 0
-1116 -1126 0
-1116 -1128 0
-1116 -1129 0
-1116 -1130 0
-1116 -1231 0
-1116 -1232 0
-1116 -1233 0
-1116 -1235 0
-1116 -1236 0
-1116 -1237 0
-1116 -1238 0
-1116 -1239 0
-1117 -1121 0
-1117 -1122 0
-1117 -1123 0
-1117 -1124 0
-1117 -1125 0
-1117 -1126 0
-1117 -1127 0
-1117 -1129 0
-1117 -1130 0
-1117 -1232 0
-1117 -1233 0
-1117 -1234 0
-1117 -1235 0
-1117 -1236 0
-1117 -1237 0
-1117 -1238 0
-1117 -1239 0
-1117 -1240 0
-1118 -1121 0
-1118 -1123 0
-1118 -1124 0
-1118 -1126 0
-1118 -1127 0
-1118 -1128 0
-1118 -1129 0
-1118 -1130 0
-1118 -1231 0
-1118 -1233 0
-1118 -1234 0
-1118 -1236 0
-1118 -1237 0
-1118 -1238 0
-1118 -1239 0
-1118 -1240 0
-1119 -1121 0
-1119 -1122 0
-1119 -1123 0
-1119 -1124 0
-1119 -1125 0
-1119 -1126 0
-1119 -1127 0
-1119 -1128 0
-1119 -1129 0
-1119 -1231 0
-1119 -1232 0
-1119 -1233 0
-1119 -1235 0
-1119 -1236 0
-1119 -1237 0
-1119 -1238 0
-1119 -1239 0
-1120 -1122 0
-1120 -1123 0
-1120 -1124 0
-1120 -1125 0
-1120 -1126 0
-1120 -1127 0
-1120 -1128 0
-1120 -1129 0
-1120 -1130 0
-1120 -1232 0
-1120 -1233 0
-1120 -1234 0
-1120 -1235 0
-1120 -1236 0
-1120 -1237 0
-1120 -1238 0
-1120 -1239 0
-1120 -1240 0
-1121 -1131 0
-1121 -1133 0
-1121 -1134 0
-1121 -1136 0
-1121 -1137 0
-1121 -1138 0
-1121 -1139 0
-1121 -1140 0
-1121 -1241 0
-1121 -1243 0
-1121 -1244 0
-1121 -1246 0
-1121 -1247 0
-1121 -1248 0
-1121 -1249 0
-1121 -1250 0
-1122 -1131 0
-1122 -1132 0
-1122 -1134 0
-1122 -1135 0
-1122 -1136 0
-1122 -1137 0
-1122 -1138 0
-1122 -1139 0
-1122 -1140 0
-1122 -1241 0
-1122 -1242 0
-1122 -1243 0
-1122 -1244 0
-1122 -1245 0
-1122 -1247 0
-1122 -1248 0
-1122 -1249 0
-1122 -1250 0
-1123 -1131 0
-1123 -1132 0
-1123 -1133 0
-1123 -1135 0
-1123 -1136 0
-1123 -1137 0
-1123 -1138 0
-1123 -1139 0
-1123 -1140 0
-1123 -1241 0
-1123 -1242 0
-1123 -1243 0
-1123 -1244 0
-1123 -1245 0
-1123 -1246 0
-1123 -1248 0
-1123 -1249 0
-1123 -1250 0
-1124 -1132 0
-1124 -1133 0
-1124 -1134 0
-1124 -1135 0
-1124 -1136 0
-1124 -1137 0
-1124 -1138 0
-1124 -1139 0
-1124 -1140 0
-1124 -1241 0
-1124 -1242 0
-1124 -1243 0
-1124 -1244 0
-1124 -1245 0
-1124 -1246 0
-1124 -1247 0
-1124 -1249 0
-1124 -1250 0
-1125 -1131 0
-1125 -1132 0
-1125 -1133 0
-1125 -1134 0
-1125 -1135 0
-1125 -1137 0
-1125 -1138 0
-1125 -1140 0
-1125 -1241 0
-1125 -1242 0
-1125 -1244 0
-1125 -1245 0
-1125 -1246 0
-1125 -1247 0
-1125 -1248 0
-1125 -1250 0
-1126 -1131 0
-1126 -1132 0
-1126 -1133 0
-1126 -1134 0
-1126 -1135 0
-1126 -1136 0
-1126 -1138 0
-1126 -1139 0
-1126 -1140 0
-1126 -1241 0
-1126 -1242 0
-1126 -1243 0
-1126 -1245 0
-1126 -1246 0
-1126 -1247 0
-1126 -1248 0
-1126 -1249 0
-1127 -1131 0
-1127 -1132 0
-1127 -1133 0
-1127 -1134 0
-1127 -1135 0
-1127 -1136 0
-1127 -1137 0
-1127 -1139 0
-1127 -1140 0
-1127 -1242 0
-1127 -1243 0
-1127 -1244 0
-1127 -1245 0
-1127 -1246 0
-1127 -1247 0
-1127 -1248 0
-1127 -1249 0
-1127 -1250 0
-1128 -1131 0
-1128 -1133 0
-1128 -1134 0
-1128 -1136 0
-1128 -1137 0
-1128 -1138 0
-1128 -1139 0
-1128 -1140 0
-1128 -1241 0
-1128 -1243 0
-1128 -1244 0
-1128 -1246 0
-1128 -1247 0
-1128 -1248 0
-1128 -1249 0
-1128 -1250 0
-1129 -1131 0
-1129 -1132 0
-1129 -1133 0
-1129 -1134 0
-1129 -1135 0
-1129 -1136 0
-1129 -1137 0
-1129 -1138 0
-1129 -1139 0
-1129 -1241 0
-1129 -1242 0
-1129 -1243 0
-1129 -1245 0
-1129 -1246 0
-1129 -1247 0
-1129 -1248 0
-1129 -1249 0
-1130 -1132 0
-1130 -1133 0
-1130 -1134 0
-1130 -1135 0
-1130 -1136 0
-1130 -1137 0
-1130 -1138 0
-1130 -1139 0
-1130 -1140 0
-1130 -1242 0
-1130 -1243 0
-1130 -1244 0
-1130 -1245 0
-1130 -1246 0
-1130 -1247 0
-1130 -1248 0
-1130 -1249 0
-1130 -1250 0
-1131 -1141 0
-1131 -1143 0
-1131 -1144 0
-1131 -1146 0
-1131 -1147 0
-1131 -1148 0
-1131 -1149 0
-1131 -1150 0
-1131 -1251 0
-1131 -1253 0
-1131 -1254 0
-1131 -1256 0
-1131 -1257 0
-1131 -1258 0
-1131 -1259 0
-1131 -1260 0
-1132 -1141 0
-1132 -1142 0
-1132 -1144 0
-1132 -1145 0
-1132 -1146 0
-1132 -1147 0
-1132 -1148 0
-1132 -1149 0
-1132 -1150 0
-1132 -1251 0
-1132 -1252 0
-1132 -1253 0
-1132 -1254 0
-1132 -1255 0
-1132 -1257 0
-1132 -1258 0
-1132 -1259 0
-1132 -1260 0
-1133 -1141 0
-1133 -1142 0
-1133 -1143 0
-1133 -1145 0
-1133 -1146 0
-1133 -1147 0
-1133 -1148 0
-1133 -1149 0
-1133 -1150 0
-1133 -1251 0
-1133 -1252 0
-1133 -1253 0
-1133 -1254 0
-1133 -1255 0
-1133 -1256 0
-1133 -1258 0
-1133 -1259 0
-1133 -1260 0
-1134 -1142 0
-1134 -1143 0
-1134 -1144 0
-1134 -1145 0
-1134 -1146 0
-1134 -1147 0
-1134 -1148 0
-1134 -1149 0
-1134 -1150 0
-1134 -1251 0
-1134 -1252 0
-1134 -1253 0
-1134 -1254 0
-1134 -1255 0
-1134 -1256 0
-1134 -1257 0
-1134 -1259 0
-1134 -1260 0
-1135 -1141 0
-1135 -1142 0
-1135 -1143 0
-1135 -1144 0
-1135 -1145 0
-1135 -1147 0
-1135 -1148 0
-1135 -1150 0
-1135 -1251 0
-1135 -1252 0
-1135 -1254 0
-1135 -1255 0
-1135 -1256 0
-1135 -1257 0
-1135 -1258 0
-1135 -1260 0
-1136 -1141 0
-1136 -1142 0
-1136 -1143 0
-1136 -1144 0
-1136 -1145 0
-1136 -1146 0
-1136 -1148 0
-1136 -1149 0
-1136 -1150 0
-1136 -1251 0
-1136 -1252 0
-1136 -1253 0
-1136 -1255 0
-1136 -1256 0
-1136 -1257 0
-1136 -1258 0
-1136 -1259 0
-1137 -1141 0
-1137 -1142 0
-1137 -1143 0
-1137 -1144 0
-1137 -1145 0
-1137 -1146 0
-1137 -1147 0
-1137 -1149 0
-1137 -1150 0
-1137 -1252 0
-1137 -1253 0
-1137 -1254 0
-1137 -1255 0
-1137 -1256 0
-1137 -1257 0
-1137 -1258 0
-1137 -1259 0
-1137 -1260 0
-1138 -1141 0
-1138 -1143 0
-1138 -1144 0
-1138 -1146 0
-1138 -1147 0
-1138 -1148 0
-1138 -1149 0
-1138 -1150 0
-1138 -1251 0
-1138 -1253 0
-1138 -1254 0
-1138 -1256 0
-1138 -1257 0
-1138 -1258 0
-1138 -1259 0
-1138 -1260 0
-1139 -1141 0
-1139 -1142 0
-1139 -1143 0
-1139 -1144 0
-1139 -1145 0
-1139 -1146 0
-1139 -1147 0
-1139 -1148 0
-1139 -1149 0
-1139 -1251 0
-1139 -1252 0
-1139 -1253 0
-1139 -1255 0
-1139 -1256 0
-1139 -1257 0
-1139 -1258 0
-1139 -1259 0
-1140 -1142 0
-1140 -1143 0
-1140 -1144 0
-1140 -1145 0
-1140 -1146 0
-1140 -1147 0
-1140 -1148 0
-1140 -1149 0
-1140 -1150 0
-1140 -1252 0
-1140 -1253 0
-1140 -1254 0
-1140 -1255 0
-1140 -1256 0
-1140 -1257 0
-1140 -1258 0
-1140 -1259 0
-1140 -1260 0
-1141 -1151 0
-1141 -1153 0
-1141 -1154 0
-1141 -1156 0
-1141 -1157 0
-1141 -1158 0
-1141 -1159 0
-1141 -1160 0
-1141 -1261 0
-1141 -1263 0
-1141 -1264 0
-1141 -1266 0
-1141 -1267 0
-1141 -1268 0
-1141 -1269 0
-1141 -1270 0
-1142 -1151 0
-1142 -1152 0
-1142 -1154 0
-1142 -1155 0
-1142 -1156 0
-1142 -1157 0
-1142 -1158 0
-1142 -1159 0
-1142 -1160 0
-1142 -1261 0
-1142 -1262 0
-1142 -1263 0
-1142 -1264 0
-1142 -1265 0
-1142 -1267 0
-1142 -1268 0
-1142 -1269 0
-1142 -1270 0
-1143 -1151 0
-1143 -1152 0
-1143 -1153 0
-1143 -1155 0
-1143 -1156 0
-1143 -1157 0
-1143 -1158 0
-1143 -1159 0
-1143 -1160 0
-1143 -1261 0
-1143 -1262 0
-1143 -1263 0
-1143 -1264 0
-1143 -1265 0
-1143 -1266 0
-1143 -1268 0
-1143 -1269 0
-1143 -1270 0
-1144 -1152 0
-1144 -1153 0
-1144 -1154 0
-1144 -1155 0
-1144 -1156 0
-1144 -1157 0
-1144 -1158 0
-1144 -1159 0
-1144 -1160 0
-1144 -1261 0
-1144 -1262 0
-1144 -1263 0
-1144 -1264 0
-1144 -1265 0
-1144 -1266 0
-1144 -1267 0
-1144 -1269 0
-1144 -1270 0
-1145 -1151 0
-1145 -1152 0
-1145 -1153 0
-1145 -1154 0
-1145 -1155 0
-1145 -1157 0
-1145 -1158 0
-1145 -1160 0
-1145 -1261 0
-1145 -1262 0
-1145 -1264 0
-1145 -1265 0
-1145 -1266 0
-1145 -1267 0
-1145 -1268 0
-1145 -1270 0
-1146 -1151 0
-1146 -1152 0
-1146 -1153 0
-1146 -1154 0
-1146 -1155 0
-1146 -1156 0
-1146 -1158 0
-1146 -1159 0
-1146 -1160 0
-1146 -1261 0
-1146 -1262 0
-1146 -1263 0
-1146 -1265 0
-1146 -1266 0
-1146 -1267 0
-1146 -1268 0
-1146 -1269 0
-1147 -1151 0
-1147 -1152 0
-1147 -1153 0
-1147 -1154 0
-1147 -1155 0
-1147 -1156 0
-1147 -1157 0
-1147 -1159 0
-1147 -1160 0
-1147 -1262 0
-1147 -1263 0
-1147 -1264 0
-1147 -1265 0
-1147 -1266 0
-1147 -1267 0
-1147 -1268 0
-1147 -1269 0
-1147 -1270 0
-1148 -1151 0
-1148 -1153 0
-1148 -1154 0
-1148 -1156 0
-1148 -1157 0
-1148 -1158 0
-1148 -1159 0
-1148 -1160 0
-1148 -1261 0
-1148 -1263 0
-1148 -1264 0
-1148 -1266 0
-1148 -1267 0
-1148 -1268 0
-1148 -1269 0
-1148 -1270 0
-1149 -1151 0
-1149 -1152 0
-1149 -1153 0
-1149 -1154 0
-1149 -1155 0
-1149 -1156 0
-1149 -1157 0
-1149 -1158 0
-1149 -1159 0
-1149 -1261 0
-1149 -1262 0
-1149 -1263 0
-1149 -1265 0
-1149 -1266 0
-1149 -1267 0
-1149 -1268 0
-1149 -1269 0
-1150 -1152 0
-1150 -1153 0
-1150 -1154 0
-1150 -1155 0
-1150 -1156 0
-1150 -1157 0
-1150 -1158 0
-1150 -1159 0
-1150 -1160 0
-1150 -1262 0
-1150 -1263 0
-1150 -1264 0
-1150 -1265 0
-1150 -1266 0
-1150 -1267 0
-1150 -1268 0
-1150 -1269 0
-1150 -1270 0
-1151 -1161 0
-1151 -1163 0
-1151 -1164 0
-1151 -1166 0
-1151 -1167 0
-1151 -1168 0
-1151 -1169 0
-1151 -1170 0
-1151 -1271 0
-1151 -1273 0
-1151 -1274 0
-1151 -1276 0
-1151 -1277 0
-1151 -1278 0
-1151 -1279 0
-1151 -1280 0
-1152 -1161 0
-1152 -1162 0
-1152 -1164 0
-1152 -1165 0
-1152 -1166 0
-1152 -1167 0
-1152 -1168 0
-1152 -1169 0
-1152 -1170 0
-1152 -1271 0
-1152 -1272 0
-1152 -1273 0
-1152 -1274 0
-1152 -1275 0
-1152 -1277 0
-1152 -1278 0
-1152 -1279 0
-1152 -1280 0
-1153 -1161 0
-1153 -1162 0
-1153 -1163 0
-1153 -1165 0
-1153 -1166 0
-1153 -1167 0
-1153 -1168 0
-1153 -1169 0
-1153 -1170 0
-1153 -1271 0
-1153 -1272 0
-1153 -1273 0
-1153 -1274 0
-1153 -1275 0
-1153 -1276 0
-1153 -1278 0
-1153 -1279 0
-1153 -1280 0
-1154 -1162 0
-1154 -1163 0
-1154 -1164 0
-1154 -1165 0
-1154 -1166 0
-1154 -1167 0
-1154 -1168 0
-1154 -1169 0
-1154 -1170 0
-1154 -1271 0
-1154 -1272 0
-1154 -1273 0
-1154 -1274 0
-1154 -1275 0
-1154 -1276 0
-1154 -1277 0
-1154 -1279 0
-1154 -1280 0
-1155 -1161 0
-1155 -1162 0
-1155 -1163 0
-1155 -1164 0
-1155 -1165 0
-1155 -1167 0
-1155 -1168 0
-1155 -1170 0
-1155 -1271 0
-1155 -1272 0
-1155 -1274 0
-1155 -1275 0
-1155 -1276 0
-1155 -1277 0
-1155 -1278 0
-1155 -1280 0
-1156 -1161 0
-1156 -1162 0
-1156 -1163 0
-1156 -1164 0
-1156 -1165 0
-1156 -1166 0
-1156 -1168 0
-1156 -1169 0
-1156 -1170 0
-1156 -1271 0
-1156 -1272 0
-1156 -1273 0
-1156 -1275 0
-1156 -1276 0
-1156 -1277 0
-1156 -1278 0
-1156 -1279 0
-1157 -1161 0
-1157 -1162 0
-1157 -1163 0
-1157 -1164 0
-1157 -1165 0
-1157 -1166 0
-1157 -1167 0
-1157 -1169 0
-1157 -1170 0
-1157 -1272 0
-1157 -1273 0
-1157 -1274 0
-1157 -1275 0
-1157 -1276 0
-1157 -1277 0
-1157 -1278 0
-1157 -1279 0
-1157 -1280 0
-1158 -1161 0
-1158 -1163 0
-1158 -1164 0
-1158 -1166 0
-1158 -1167 0
-1158 -1168 0
-1158 -1169 0
-1158 -1170 0
-1158 -1271 0
-1158 -1273 0
-1158 -1274 0
-1158 -1276 0
-1158 -1277 0
-1158 -1278 0
-1158 -1279 0
-1158 -1280 0
-1159 -1161 0
-1159 -1162 0
-1159 -1163 0
-1159 -1164 0
-1159 -1165 0
-1159 -1166 0
-1159 -1167 0
-1159 -1168 0
-1159 -1169 0
-1159 -1271 0
-1159 -1272 0
-1159 -1273 0
-1159 -1275 0
-1159 -1276 0
-1159 -1277 0
-1159 -1278 0
-1159 -1279 0
-1160 -1162 0
-1160 -1163 0
-1160 -1164 0
-1160 -1165 0
-1160 -1166 0
-1160 -1167 0
-1160 -1168 0
-1160 -1169 0
-1160 -1170 0
-1160 -1272 0
-1160 -1273 0
-1160 -1274 0
-1160 -1275 0
-1160 -1276 0
-1160 -1277 0
-1160 -1278 0
-1160 -1279 0
-1160 -1280 0
-1161 -1171 0
-1161 -1173 0
-1161 -1174 0
-1161 -1176 0
-1161 -1177 0
-1161 -1178 0
-1161 -1179 0
-1161 -1180 0
-1161 -1281 0
-1161 -1283 0
-1161 -1284 0
-1161 -1286 0
-1161 -1287 0
-1161 -1288 0
-1161 -1289 0
-1161 -1290 0
-1162 -1171 0
-1162 -1172 0
-1162 -1174 0
-1162 -1175 0
-1162 -1176 0
-1162 -1177 0
-1162 -1178 0
-1162 -1179 0
-1162 -1180 0
-1162 -1281 0
-1162 -1282 0
-1162 -1283 0
-1162 -1284 0
-1162 -1285 0
-1162 -1287 0
-1162 -1288 0
-1162 -1289 0
-1162 -1290 0
-1163 -1171 0
-1163 -1172 0
-1163 -1173 0
-1163 -1175 0
-1163 -1176 0
-1163 -1177 0
-1163 -1178 0
-1163 -1179 0
-1163 -1180 0
-1163 -1281 0
-1163 -1282 0
-1163 -1283 0
-1163 -1284 0
-1163 -1285 0
-1163 -1286 0
-1163 -1288 0
-1163 -1289 0
-1163 -1290 0
-1164 -1172 0
-1164 -1173 0
-1164 -1174 0
-1164 -1175 0
-1164 -1176 0
-1164 -1177 0
-1164 -1178 0
-1164 -1179 0
-1164 -1180 0
-1164 -1281 0
-1164 -1282 0
-1164 -1283 0
-1164 -1284 0
-1164 -1285 0
-1164 -1286 0
-1164 -1287 0
-1164 -1289 0
-1164 -1290 0
-1165 -1171 0
-1165 -1172 0
-1165 -1173 0
-1165 -1174 0
-1165 -1175 0
-1165 -1177 0
-1165 -1178 0
-1165 -1180 0
-1165 -1281 0
-1165 -1282 0
-1165 -1284 0
-1165 -1285 0
-1165 -1286 0
-1165 -1287 0
-1165 -1288 0
-1165 -1290 0
-1166 -1171 0
-1166 -1172 0
-1166 -1173 0
-1166 -1174 0
-1166 -1175 0
-1166 -1176 0
-1166 -1178 0
-1166 -1179 0
-1166 -1180 0
-1166 -1281 0
-1166 -1282 0
-1166 -1283 0
-1166 -1285 0
-1166 -1286 0
-1166 -1287 0
-1166 -1288 0
-1166 -1289 0
-1167 -1171 0
-1167 -1172 0
-1167 -1173 0
-1167 -1174 0
-1167 -1175 0
-1167 -1176 0
-1167 -1177 0
-1167 -1179 0
-1167 -1180 0
-1167 -1282 0
-1167 -1283 0
-1167 -1284 0
-1167 -1285 0
-1167 -1286 0
-1167 -1287 0
-1167 -1288 0
-1167 -1289 0
-1167 -1290 0
-1168 -1171 0
-1168 -1173 0
-1168 -1174 0
-1168 -1176 0
-1168 -1177 0
-1168 -1178 0
-1168 -1179 0
-1168 -1180 0
-1168 -1281 0
-1168 -1283 0
-1168 -1284 0
-1168 -1286 0
-1168 -1287 0
-1168 -1288 0
-1168 -1289 0
-1168 -1290 0
-1169 -1171 0
-1169 -1172 0
-1169 -1173 0
-1169 -1174 0
-1169 -1175 0
-1169 -1176 0
-1169 -1177 0
-1169 -1178 0
-1169 -1179 0
-1169 -1281 0
-1169 -1282 0
-1169 -1283 0
-1169 -1285 0
-1169 -1286 0
-1169 -1287 0
-1169 -1288 0
-1169 -1289 0
-1170 -1172 0
-1170 -1173 0
-1170 -1174 0
-1170 -1175 0
-1170 -1176 0
-1170 -1177 0
-1170 -1178 0
-1170 -1179 0
-1170 -1180 0
-1170 -1282 0
-1170 -1283 0
-1170 -1284 0
-1170 -1285 0
-1170 -1286 0
-1170 -1287 0
-1170 -1288 0
-1170 -1289 0
-1170 -1290 0
-1171 -1181 0
-1171 -1183 0
-1171 -1184 0
-1171 -1186 0
-1171 -1187 0
-1171 -1188 0
-1171 -1189 0
-1171 -1190 0
-1171 -1291 0
-1171 -1293 0
-1171 -1294 0
-1171 -1296 0
-1171 -1297 0
-1171 -1298 0
-1171 -1299 0
-1171 -1300 0
-1172 -1181 0
-1172 -1182 0
-1172 -1184 0
-1172 -1185 0
-1172 -1186 0
-1172 -1187 0
-1172 -1188 0
-1172 -1189 0
-1172 -1190 0
-1172 -1291 0
-1172 -1292 0
-1172 -1293 0
-1172 -1294 0
-1172 -1295 0
-1172 -1297 0
-1172 -1298 0
-1172 -1299 0
-1172 -1300 0
-1173 -1181 0
-1173 -1182 0
-1173 -1183 0
-1173 -1185 0
-1173 -1186 0
-1173 -1187 0
-1173 -1188 0
-1173 -1189 0
-1173 -1190 0
-1173 -1291 0
-1173 -1292 0
-1173 -1293 0
-1173 -1294 0
-1173 -1295 0
-1173 -1296 0
-1173 -1298 0
-1173 -1299 0
-1173 -1300 0
-1174 -1182 0
-1174 -1183 0
-1174 -1184 0
-1174 -1185 0
-1174 -1186 0
-1174 -1187 0
-1174 -1188 0
-1174 -1189 0
-1174 -1190 0
-1174 -1291 0
-1174 -1292 0
-1174 -1293 0
-1174 -1294 0
-1174 -1295 0
-1174 -1296 0
-1174 -1297 0
-1174 -1299 0
-1174 -1300 0
-1175 -1181 0
-1175 -1182 0
-1175 -1183 0
-1175 -1184 0
-1175 -1185 0
-1175 -1187 0
-1175 -1188 0
-1175 -1190 0
-1175 -1291 0
-1175 -1292 0
-1175 -1294 0
-1175 -1295 0
-1175 -1296 0
-1175 -1297 0
-1175 -1298 0
-1175 -1300 0
-1176 -1181 0
-1176 -1182 0
-1176 -1183 0
-1176 -1184 0
-1176 -1185 0
-1176 -1186 0
-1176 -1188 0
-1176 -1189 0
-1176 -1190 0
-1176 -1291 0
-1176 -1292 0
-1176 -1293 0
-1176 -1295 0
-1176 -1296 0
-1176 -1297 0
-1176 -1298 0
-1176 -1299 0
-1177 -1181 0
-1177 -1182 0
-1177 -1183 0
-1177 -1184 0
-1177 -1185 0
-1177 -1186 0
-1177 -1187 0
-1177 -1189 0
-1177 -1190 0
-1177 -1292 0
-1177 -1293 0
-1177 -1294 0
-1177 -1295 0
-1177 -1296 0
-1177 -1297 0
-1177 -1298 0
-1177 -1299 0
-1177 -1300 0
-1178 -1181 0
-1178 -1183 0
-1178 -1184 0
-1178 -1186 0
-1178 -1187 0
-1178 -1188 0
-1178 -1189 0
-1178 -1190 0
-1178 -1291 0
-1178 -1293 0
-1178 -1294 0
-1178 -1296 0
-1178 -1297 0
-1178 -1298 0
-1178 -1299 0
-1178 -1300 0
-1179 -1181 0
-1179 -1182 0
-1179 -1183 0
-1179 -1184 0
-1179 -1185 0
-1179 -1186 0
-1179 -1187 0
-1179 -1188 0
-1179 -1189 0
-1179 -1291 0
-1179 -1292 0
-1179 -1293 0
-1179 -1295 0
-1179 -1296 0
-1179 -1297 0
-1179 -1298 0
-1179 -1299 0
-1180 -1182 0
-1180 -1183 0
-1180 -1184 0
-1180 -1185 0
-1180 -1186 0
-1180 -1187 0
-1180 -1188 0
-1180 -1189 0
-1180 -1190 0
-1180 -1292 0
-1180 -1293 0
-1180 -1294 0
-1180 -1295 0
-1180 -1296 0
-1180 -1297 0
-1180 -1298 0
-1180 -1299 0
-1180 -1300 0
-1181 -1191 0
-1181 -1193 0
-1181 -1194 0
-1181 -1196 0
-1181 -1197 0
-1181 -1198 0
-1181 -1199 0
-1181 -1200 0
-1181 -1301 0
-1181 -1303 0
-1181 -1304 0
-1181 -1306 0
-1181 -1307 0
-1181 -1308 0
-1181 -1309 0
-1181 -1310 0
-1182 -1191 0
-1182 -1192 0
-1182 -1194 0
-1182 -1195 0
-1182 -1196 0
-1182 -1197 0
-1182 -1198 0
-1182 -1199 0
-1182 -1200 0
-1182 -1301 0
-1182 -1302 0
-1182 -1303 0
-1182 -1304 0
-1182 -1305 0
-1182 -1307 0
-1182 -1308 0
-1182 -1309 0
-1182 -1310 0
-1183 -1191 0
-1183 -1192 0
-1183 -1193 0
-1183 -1195 0
-1183 -1196 0
-1183 -1197 0
-1183 -1198 0
-1183 -1199 0
-1183 -1200 0
-1183 -1301 0
-1183 -1302 0
-1183 -1303 0
-1183 -1304 0
-1183 -1305 0
-1183 -1306 0
-1183 -1308 0
-1183 -1309 0
-1183 -1310 0
-1184 -1192 0
-1184 -1193 0
-1184 -1194 0
-1184 -1195 0
-1184 -1196 0
-1184 -1197 0
-1184 -1198 0
-1184 -1199 0
-1184 -1200 0
-1184 -1301 0
-1184 -1302 0
-1184 -1303 0
-1184 -1304 0
-1184 -1305 0
-1184 -1306 0
-1184 -1307 0
-1184 -1309 0
-1184 -1310 0
-1185 -1191 0
-1185 -1192 0
-1185 -1193 0
-1185 -1194 0
-1185 -1195 0
-1185 -1197 0
-1185 -1198 0
-1185 -1200 0
-1185 -1301 0
-1185 -1302 0
-1185 -1304 0
-1185 -1305 0
-1185 -1306 0
-1185 -1307 0
-1185 -1308 0
-1185 -1310 0
-1186 -1191 0
-1186 -1192 0
-1186 -1193 0
-1186 -1194 0
-1186 -1195 0
-1186 -1196 0
-1186 -1198 0
-1186 -1199 0
-1186 -1200 0
-1186 -1301 0
-1186 -1302 0
-1186 -1303 0
-1186 -1305 0
-1186 -1306 0
-1186 -1307 0
-1186 -1308 0
-1186 -1309 0
-1187 -1191 0
-1187 -1192 0
-1187 -1193 0
-1187 -1194 0
-1187 -1195 0
-1187 -1196 0
-1187 -1197 0
-1187 -1199 0
-1187 -1200 0
-1187 -1302 0
-1187 -1303 0
-1187 -1304 0
-1187 -1305 0
-1187 -1306 0
-1187 -1307 0
-1187 -1308 0
-1187 -1309 0
-1187 -1310 0
-1188 -1191 0
-1188 -1193 0
-1188 -1194 0
-1188 -1196 0
-1188 -1197 0
-1188 -1198 0
-1188 -1199 0
-1188 -1200 0
-1188 -1301 0
-1188 -1303 0
-1188 -1304 0
-1188 -1306 0
-1188 -1307 0
-1188 -1308 0
-1188 -1309 0
-1188 -1310 0
-1189 -1191 0
-1189 -1192 0
-1189 -1193 0
-1189 -1194 0
-1189 -1195 0
-1189 -1196 0
-1189 -1197 0
-1189 -1198 0
-1189 -1199 0
-1189 -1301 0
-1189 -1302 0
-1189 -1303 0
-1189 -1305 0
-1189 -1306 0
-1189 -1307 0
-1189 -1308 0
-1189 -1309 0
-1190 -1192 0
-1190 -1193 0
-1190 -1194 0
-1190 -1195 0
-1190 -1196 0
-1190 -1197 0
-1190 -1198 0
-1190 -1199 0
-1190 -1200 0
-1190 -1302 0
-1190 -1303 0
-1190 -1304 0
-1190 -1305 0
-1190 -1306 0
-1190 -1307 0
-1190 -1308 0
-1190 -1309 0
-1190 -1310 0
-1191 -1311 0
-1191 -1313 0
-1191 -1314 0
-1191 -1316 0
-1191 -1317 0
-1191 -1318 0
-1191 -1319 0
-1191 -1320 0
-1192 -1311 0
-1192 -1312 0
-1192 -1313 0
-1192 -1314 0
-1192 -1315 0
-1192 -1317 0
-1192 -1318 0
-1192 -1319 0
-1192 -1320 0
-1193 -1311 0
-1193 -1312 0
-1193 -1313 0
-1193 -1314 0
-1193 -1315 0
-1193 -1316 0
-1193 -1318 0
-1193 -1319 0
-1193 -1320 0
-1194 -1311 0
-1194 -1312 0
-1194 -1313 0
-1194 -1314 0
-1194 -1315 0
-1194 -1316 0
-1194 -1317 0
-1194 -1319 0
-1194 -1320 0
-1195 -1311 0
-1195 -1312 0
-1195 -1314 0
-1195 -1315 0
-1195 -1316 0
-1195 -1317 0
-1195 -1318 0
-1195 -1320 0
-1196 -1311 0
-1196 -1312 0
-1196 -1313 0
-1196 -1315 0
-1196 -1316 0
-1196 -1317 0
-1196 -1318 0
-1196 -1319 0
-1197 -1312 0
-1197 -1313 0
-1197 -1314 0
-1197 -1315 0
-1197 -1316 0
-1197 -1317 0
-1197 -1318 0
-1197 -1319 0
-1197 -1320 0
-1198 -1311 0
-1198 -1313 0
-1198 -1314 0
-1198 -1316 0
-1198 -1317 0
-1198 -1318 0
-1198 -1319 0
-1198 -1320 0
-1199 -1311 0
-1199 -1312 0
-1199 -1313 0
-1199 -1315 0
-1199 -1316 0
-1199 -1317 0
-1199 -1318 0
-1199 -1319 0
-1200 -1312 0
-1200 -1313 0
-1200 -1314 0
-1200 -1315 0
-1200 -1316 0
-1200 -1317 0
-1200 -1318 0
-1200 -1319 0
-1200 -1320 0
-1201 -1211 0
-1201 -1213 0
-1201 -1214 0
-1201 -1216 0
-1201 -1217 0
-1201 -1218 0
-1201 -1219 0
-1201 -1220 0
-1201 -1321 0
-1201 -1323 0
-1201 -1324 0
-1201 -1326 0
-1201 -1327 0
-1201 -1328 0
-1201 -1329 0
-1201 -1330 0
-1202 -1211 0
-1202 -1212 0
-1202 -1214 0
-1202 -1215 0
-1202 -1216 0
-1202 -1217 0
-1202 -1218 0
-1202 -1219 0
-1202 -1220 0
-1202 -1321 0
-1202 -1322 0
-1202 -1323 0
-1202 -1324 0
-1202 -1325 0
-1202 -1327 0
-1202 -1328 0
-1202 -1329 0
-1202 -1330 0
-1203 -1211 0
-1203 -1212 0
-1203 -1213 0
-1203 -1215 0
-1203 -1216 0
-1203 -1217 0
-1203 -1218 0
-1203 -1219 0
-1203 -1220 0
-1203 -1321 0
-1203 -1322 0
-1203 -1323 0
-1203 -1324 0
-1203 -1325 0
-1203 -1326 0
-1203 -1328 0
-1203 -1329 0
-1203 -1330 0
-1204 -1212 0
-1204 -1213 0
-1204 -1214 0
-1204 -1215 0
-1204 -1216 0
-1204 -1217 0
-1204 -1218 0
-1204 -1219 0
-1204 -1220 0
-1204 -1321 0
-1204 -1322 0
-1204 -1323 0
-1204 -1324 0
-1204 -1325 0
-1204 -1326 0
-1204 -1327 0
-1204 -1329 0
-1204 -1330 0
-1205 -1211 0
-1205 -1212 0
-1205 -1213 0
-1205 -1214 0
-1205 -1215 0
-1205 -1217 0
-1205 -1218 0
-1205 -1220 0
-1205 -1321 0
-1205 -1322 0
-1205 -1324 0
-1205 -1325 0
-1205 -1326 0
-1205 -1327 0
-1205 -1328 0
-1205 -1330 0
-1206 -1211 0
-1206 -1212 0
-1206 -1213 0
-1206 -1214 0
-1206 -1215 0
-1206 -1216 0
-1206 -1218 0
-1206 -1219 0
-1206 -1220 0
-1206 -1321 0
-1206 -1322 0
-1206 -1323 0
-1206 -1325 0
-1206 -1326 0
-1206 -1327 0
-1206 -1328 0
-1206 -1329 0
-1207 -1211 0
-1207 -1212 0
-1207 -1213 0
-1207 -1214 0
-1207 -1215 0
-1207 -1216 0
-1207 -1217 0
-1207 -1219 0
-1207 -1220 0
-1207 -1322 0
-1207 -1323 0
-1207 -1324 0
-1207 -1325 0
-1207 -1326 0
-1207 -1327 0
-1207 -1328 0
-1207 -1329 0
-1207 -1330 0
-1208 -1211 0
-1208 -1213 0
-1208 -1214 0
-1208 -1216 0
-1208 -1217 0
-1208 -1218 0
-1208 -1219 0
-1208 -1220 0
-1208 -1321 0
-1208 -1323 0
-1208 -1324 0
-1208 -1326 0
-1208 -1327 0
-1208 -1328 0
-1208 -1329 0
-1208 -1330 0
-1209 -1211 0
-1209 -1212 0
-1209 -1213 0
-1209 -1214 0
-1209 -1215 0
-1209 -1216 0
-1209 -1217 0
-1209 -1218 0
-1209 -1219 0
-1209 -1321 0
-1209 -1322 0
-1209 -1323 0
-1209 -1325 0
-1209 -1326 0
-1209 -1327 0
-1209 -1328 0
-1209 -1329 0
-1210 -1212 0
-1210 -1213 0
-1210 -1214 0
-1210 -1215 0
-1210 -1216 0
-1210 -1217 0
-1210 -1218 0
-1210 -1219 0
-1210 -1220 0
-1210 -1322 0
-1210 -1323 0
-1210 -1324 0
-1210 -1325 0
-1210 -1326 0
-1210 -1327 0
-1210 -1328 0
-1210 -1329 0
-1210 -1330 0
-1211 -1221 0
-1211 -1223 0
-1211 -1224 0
-1211 -1226 0
-1211 -1227 0
-1211 -1228 0
-1211 -1229 0
-1211 -1230 0
-1211 -1331 0
-1211 -1333 0
-1211 -1334 0
-1211 -1336 0
-1211 -1337 0
-1211 -1338 0
-1211 -1339 0
-1211 -1340 0
-1212 -1221 0
-1212 -1222 0
-1212 -1224 0
-1212 -1225 0
-1212 -1226 0
-1212 -1227 0
-1212 -1228 0
-1212 -1229 0
-1212 -1230 0
-1212 -1331 0
-1212 -1332 0
-1212 -1333 0
-1212 -1334 0
-1212 -1335 0
-1212 -1337 0
-1212 -1338 0
-1212 -1339 0
-1212 -1340 0
-1213 -1221 0
-1213 -1222 0
-1213 -1223 0
-1213 -1225 0
-1213 -1226 0
-1213 -1227 0
-1213 -1228 0
-1213 -1229 0
-1213 -1230 0
-1213 -1331 0
-1213 -1332 0
-1213 -1333 0
-1213 -1334 0
-1213 -1335 0
-1213 -1336 0
-1213 -1338 0
-1213 -1339 0
-1213 -1340 0
-1214 -1222 0
-1214 -1223 0
-1214 -1224 0
-1214 -1225 0
-1214 -1226 0
-1214 -1227 0
-1214 -1228 0
-1214 -1229 0
-1214 -1230 0
-1214 -1331 0
-1214 -1332 0
-1214 -1333 0
-1214 -1334 0
-1214 -1335 0
-1214 -1336 0
-1214 -1337 0
-1214 -1339 0
-1214 -1340 0
-1215 -1221 0
-1215 -1222 0
-1215 -1223 0
-1215 -1224 0
-1215 -1225 0
-1215 -1227 0
-1215 -1228 0
-1215 -1230 0
-1215 -1331 0
-1215 -1332 0
-1215 -1334 0
-1215 -1335 0
-1215 -1336 0
-1215 -1337 0
-1215 -1338 0
-1215 -1340 0
-1216 -1221 0
-1216 -1222 0
-1216 -1223 0
-1216 -1224 0
-1216 -1225 0
-1216 -1226 0
-1216 -1228 0
-1216 -1229 0
-1216 -1230 0
-1216 -1331 0
-1216 -1332 0
-1216 -1333 0
-1216 -1335 0
-1216 -1336 0
-1216 -1337 0
-1216 -1338 0
-1216 -1339 0
-1217 -1221 0
-1217 -1222 0
-1217 -1223 0
-1217 -1224 0
-1217 -1225 0
-1217 -1226 0
-1217 -1227 0
-1217 -1229 0
-1217 -1230 0
-1217 -1332 0
-1217 -1333 0
-1217 -1334 0
-1217 -1335 0
-1217 -1336 0
-1217 -1337 0
-1217 -1338 0
-1217 -1339 0
-1217 -1340 0
-1218 -1221 0
-1218 -1223 0
-1218 -1224 0
-1218 -1226 0
-1218 -1227 0
-1218 -1228 0
-1218 -1229 0
-1218 -1230 0
-1218 -1331 0
-1218 -1333 0
-1218 -1334 0
-1218 -1336 0
-1218 -1337 0
-1218 -1338 0
-1218 -1339 0
-1218 -1340 0
-1219 -1221 0
-1219 -1222 0
-1219 -1223 0
-1219 -1224 0
-1219 -1225 0
-1219 -1226 0
-1219 -1227 0
-1219 -1228 0
-1219 -1229 0
-1219 -1331 0
-1219 -1332 0
-1219 -1333 0
-1219 -1335 0
-1219 -1336 0
-1219 -1337 0
-1219 -1338 0
-1219 -1339 0
-1220 -1222 0
-1220 -1223 0
-1220 -1224 0
-1220 -1225 0
-1220 -1226 0
-1220 -1227 0
-1220 -1228 0
-1220 -1229 0
-1220 -1230 0
-1220 -1332 0
-1220 -1333 0
-1220 -1334 0
-1220 -1335 0
-1220 -1336 0
-1220 -1337 0
-1220 -1338 0
-1220 -1339 0
-1220 -1340 0
-1221 -1231 0
-1221 -1233 0
-1221 -1234 0
-1221 -1236 0
-1221 -1237 0
-1221 -1238 0
-1221 -1239 0
-1221 -1240 0
-1221 -1341 0
-1221 -1343 0
-1221 -1344 0
-1221 -1346 0
-1221 -1347 0
-1221 -1348 0
-1221 -1349 0
-1221 -1350 0
-1222 -1231 0
-1222 -1232 0
-1222 -1234 0
-1222 -1235 0
-1222 -1236 0
-1222 -1237 0
-1222 -1238 0
-1222 -1239 0
-1222 -1240 0
-1222 -1341 0
-1222 -1342 0
-1222 -1343 0
-1222 -1344 0
-1222 -1345 0
-1222 -1347 0
-1222 -1348 0
-1222 -1349 0
-1222 -1350 0
-1223 -1231 0
-1223 -1232 0
-1223 -1233 0
-1223 -1235 0
-1223 -1236 0
-1223 -1237 0
-1223 -1238 0
-1223 -1239 0
-1223 -1240 0
-1223 -1341 0
-1223 -1342 0
-1223 -1343 0
-1223 -1344 0
-1223 -1345 0
-1223 -1346 0
-1223 -1348 0
-1223 -1349 0
-1223 -1350 0
-1224 -1232 0
-1224 -1233 0
-1224 -1234 0
-1224 -1235 0
-1224 -1236 0
-1224 -1237 0
-1224 -1238 0
-1224 -1239 0
-1224 -1240 0
-1224 -1341 0
-1224 -1342 0
-1224 -1343 0
-1224 -1344 0
-1224 -1345 0
-1224 -1346 0
-1224 -1347 0
-1224 -1349 0
-1224 -1350 0
-1225 -1231 0
-1225 -1232 0
-1225 -1233 0
-1225 -1234 0
-1225 -1235 0
-1225 -1237 0
-1225 -1238 0
-1225 -1240 0
-1225 -1341 0
-1225 -1342 0
-1225 -1344 0
-1225 -1345 0
-1225 -1346 0
-1225 -1347 0
-1225 -1348 0
-1225 -1350 0
-1226 -1231 0
-1226 -1232 0
-1226 -1233 0
-1226 -1234 0
-1226 -1235 0
-1226 -1236 0
-1226 -1238 0
-1226 -1239 0
-1226 -1240 0
-1226 -1341 0
-1226 -1342 0
-1226 -1343 0
-1226 -1345 0
-1226 -1346 0
-1226 -1347 0
-1226 -1348 0
-1226 -1349 0
-1227 -1231 0
-1227 -1232 0
-1227 -1233 0
-1227 -1234 0
-1227 -1235 0
-1227 -1236 0
-1227 -1237 0
-1227 -1239 0
-1227 -1240 0
-1227 -1342 0
-1227 -1343 0
-1227 -1344 0
-1227 -1345 0
-1227 -1346 0
-1227 -1347 0
-1227 -1348 0
-1227 -1349 0
-1227 -1350 0
-1228 -1231 0
-1228 -1233 0
-1228 -1234 0
-1228 -1236 0
-1228 -1237 0
-1228 -1238 0
-1228 -1239 0
-1228 -1240 0
-1228 -1341 0
-1228 -1343 0
-1228 -1344 0
-1228 -1346 0
-1228 -1347 0
-1228 -1348 0
-1228 -1349 0
-1228 -1350 0
-1229 -1231 0
-1229 -1232 0
-1229 -1233 0
-1229 -1234 0
-1229 -1235 0
-1229 -1236 0
-1229 -1237 0
-1229 -1238 0
-1229 -1239 0
-1229 -1341 0
-1229 -1342 0
-1229 -1343 0
-1229 -1345 0
-1229 -1346 0
-1229 -1347 0
-1229 -1348 0
-1229 -1349 0
-1230 -1232 0
-1230 -1233 0
-1230 -1234 0
-1230 -1235 0
-1230 -1236 0
-1230 -1237 0
-1230 -1238 0
-1230 -1239 0
-1230 -1240 0
-1230 -1342 0
-1230 -1343 0
-1230 -1344 0
-1230 -1345 0
-1230 -1346 0
-1230 -1347 0
-1230 -1348 0
-1230 -1349 0
-1230 -1350 0
-1231 -1241 0
-1231 -1243 0
-1231 -1244 0
-1231 -1246 0
-1231 -1247 0
-1231 -1248 0
-1231 -1249 0
-1231 -1250 0
-1231 -1351 0
-1231 -1353 0
-1231 -1354 0
-1231 -1356 0
-1231 -1357 0
-1231 -1358 0
-1231 -1359 0
-1231 -1360 0
-1232 -1241 0
-1232 -1242 0
-1232 -1244 0
-1232 -1245 0
-1232 -1246 0
-1232 -1247 0
-1232 -1248 0
-1232 -1249 0
-1232 -1250 0
-1232 -1351 0
-1232 -1352 0
-1232 -1353 0
-1232 -1354 0
-1232 -1355 0
-1232 -1357 0
-1232 -1358 0
-1232 -1359 0
-1232 -1360 0
-1233 -1241 0
-1233 -1242 0
-1233 -1243 0
-1233 -1245 0
-1233 -1246 0
-1233 -1247 0
-1233 -1248 0
-1233 -1249 0
-1233 -1250 0
-1233 -1351 0
-1233 -1352 0
-1233 -1353 0
-1233 -1354 0
-1233 -1355 0
-1233 -1356 0
-1233 -1358 0
-1233 -1359 0
-1233 -1360 0
-1234 -1242 0
-1234 -1243 0
-1234 -1244 0
-1234 -1245 0
-1234 -1246 0
-1234 -1247 0
-1234 -1248 0
-1234 -1249 0
-1234 -1250 0
-1234 -1351 0
-1234 -1352 0
-1234 -1353 0
-1234 -1354 0
-1234 -1355 0
-1234 -1356 0
-1234 -1357 0
-1234 -1359 0
-1234 -1360 0
-1235 -1241 0
-1235 -1242 0
-1235 -1243 0
-1235 -1244 0
-1235 -1245 0
-1235 -1247 0
-1235 -1248 0
-1235 -1250 0
-1235 -1351 0
-1235 -1352 0
-1235 -1354 0
-1235 -1355 0
-1235 -1356 0
-1235 -1357 0
-1235 -1358 0
-1235 -1360 0
-1236 -1241 0
-1236 -1242 0
-1236 -1243 0
-1236 -1244 0
-1236 -1245 0
-1236 -1246 0
-1236 -1248 0
-1236 -1249 0
-1236 -1250 0
-1236 -1351 0
-1236 -1352 0
-1236 -1353 0
-1236 -1355 0
-1236 -1356 0
-1236 -1357 0
-1236 -1358 0
-1236 -1359 0
-1237 -1241 0
-1237 -1242 0
-1237 -1243 0
-1237 -1244 0
-1237 -1245 0
-1237 -1246 0
-1237 -1247 0
-1237 -1249 0
-1237 -1250 0
-1237 -1352 0
-1237 -1353 0
-1237 -1354 0
-1237 -1355 0
-1237 -1356 0
-1237 -1357 0
-1237 -1358 0
-1237 -1359 0
-1237 -1360 0
-1238 -1241 0
-1238 -1243 0
-1238 -1244 0
-1238 -1246 0
-1238 -1247 0
-1238 -1248 0
-1238 -1249 0
-1238 -1250 0
-1238 -1351 0
-1238 -1353 0
-1238 -1354 0
-1238 -1356 0
-1238 -1357 0
-1238 -1358 0
-1238 -1359 0
-1238 -1360 0
-1239 -1241 0
-1239 -1242 0
-1239 -1243 0
-1239 -1244 0
-1239 -1245 0
-1239 -1246 0
-1239 -1247 0
-1239 -1248 0
-1239 -1249 0
-1239 -1351 0
-1239 -1352 0
-1239 -1353 0
-1239 -1355 0
-1239 -1356 0
-1239 -1357 0
-1239 -1358 0
-1239 -1359 0
-1240 -1242 0
-1240 -1243 0
-1240 -1244 0
-1240 -1245 0
-1240 -1246 0
-1240 -1247 0
-1240 -1248 0
-1240 -1249 0
-1240 -1250 0
-1240 -1352 0
-1240 -1353 0
-1240 -1354 0
-1240 -1355 0
-1240 -1356 0
-1240 -1357 0
-1240 -1358 0
-1240 -1359 0
-1240 -1360 0
-1241 -1251 0
-1241 -1253 0
-1241 -1254 0
-1241 -1256 0
-1241 -1257 0
-1241 -1258 0
-1241 -1259 0
-1241 -1260 0
-1241 -1361 0
-1241 -1363 0
-1241 -1364 0
-1241 -1366 0
-1241 -1367 0
-1241 -1368 0
-1241 -1369 0
-1241 -1370 0
-1242 -1251 0
-1242 -1252 0
-1242 -1254 0
-1242 -1255 0
-1242 -1256 0
-1242 -1257 0
-1242 -1258 0
-1242 -1259 0
-1242 -1260 0
-1242 -1361 0
-1242 -1362 0
-1242 -1363 0
-1242 -1364 0
-1242 -1365 0
-1242 -1367 0
-1242 -1368 0
-1242 -1369 0
-1242 -1370 0
-1243 -1251 0
-1243 -1252 0
-1243 -1253 0
-1243 -1255 0
-1243 -1256 0
-1243 -1257 0
-1243 -1258 0
-1243 -1259 0
-1243 -1260 0
-1243 -1361 0
-1243 -1362 0
-1243 -1363 0
-1243 -1364 0
-1243 -1365 0
-1243 -1366 0
-1243 -1368 0
-1243 -1369 0
-1243 -1370 0
-1244 -1252 0
-1244 -1253 0
-1244 -1254 0
-1244 -1255 0
-1244 -1256 0
-1244 -1257 0
-1244 -1258 0
-1244 -1259 0
-1244 -1260 0
-1244 -1361 0
-1244 -1362 0
-1244 -1363 0
-1244 -1364 0
-1244 -1365 0
-1244 -1366 0
-1244 -1367 0
-1244 -1369 0
-1244 -1370 0
-1245 -1251 0
-1245 -1252 0
-1245 -1253 0
-1245 -1254 0
-1245 -1255 0
-1245 -1257 0
-1245 -1258 0
-1245 -1260 0
-1245 -1361 0
-1245 -1362 0
-1245 -1364 0
-1245 -1365 0
-1245 -1366 0
-1245 -1367 0
-1245 -1368 0
-1245 -1370 0
-1246 -1251 0
-1246 -1252 0
-1246 -1253 0
-1246 -1254 0
-1246 -1255 0
-1246 -1256 0
-1246 -1258 0
-1246 -1259 0
-1246 -1260 0
-1246 -1361 0
-1246 -1362 0
-1246 -1363 0
-1246 -1365 0
-1246 -1366 0
-1246 -1367 0
-1246 -1368 0
-1246 -1369 0
-1247 -1251 0
-1247 -1252 0
-1247 -1253 0
-1247 -1254 0
-1247 -1255 0
-1247 -1256 0
-1247 -1257 0
-1247 -1259 0
-1247 -1260 0
-1247 -1362 0
-1247 -1363 0
-1247 -1364 0
-1247 -1365 0
-1247 -1366 0
-1247 -1367 0
-1247 -1368 0
-1247 -1369 0
-1247 -1370 0
-1248 -1251 0
-1248 -1253 0
-1248 -1254 0
-1248 -1256 0
-1248 -1257 0
-1248 -1258 0
-1248 -1259 0
-1248 -1260 0
-1248 -1361 0
-1248 -1363 0
-1248 -1364 0
-1248 -1366 0
-1248 -1367 0
-1248 -1368 0
-1248 -1369 0
-1248 -1370 0
-1249 -1251 0
-1249 -1252 0
-1249 -1253 0
-1249 -1254 0
-1249 -1255 0
-1249 -1256 0
-1249 -1257 0
-1249 -1258 0
-1249 -1259 0
-1249 -1361 0
-1249 -1362 0
-1249 -1363 0
-1249 -1365 0
-1249 -1366 0
-1249 -1367 0
-1249 -1368 0
-1249 -1369 0
-1250 -1252 0
-1250 -1253 0
-1250 -1254 0
-1250 -1255 0
-1250 -1256 0
-1250 -1257 0
-1250 -1258 0
-1250 -1259 0
-1250 -1260 0
-1250 -1362 0
-1250 -1363 0
-1250 -1364 0
-1250 -1365 0
-1250 -1366 0
-1250 -1367 0
-1250 -1368 0
-1250 -1369 0
-1250 -1370 0
-1251 -1261 0
-1251 -1263 0
-1251 -1264 0
-1251 -1266 0
-1251 -1267 0
-1251 -1268 0
-1251 -1269 0
-1251 -1270 0
-1251 -1371 0
-1251 -1373 0
-1251 -1374 0
-1251 -1376 0
-1251 -1377 0
-1251 -1378 0
-1251 -1379 0
-1251 -1380 0
-1252 -1261 0
-1252 -1262 0
-1252 -1264 0
-1252 -1265 0
-1252 -1266 0
-1252 -1267 0
-1252 -1268 0
-1252 -1269 0
-1252 -1270 0
-1252 -1371 0
-1252 -1372 0
-1252 -1373 0
-1252 -1374 0
-1252 -1375 0
-1252 -1377 0
-1252 -1378 0
-1252 -1379 0
-1252 -1380 0
-1253 -1261 0
-1253 -1262 0
-1253 -1263 0
-1253 -1265 0
-1253 -1266 0
-1253 -1267 0
-1253 -1268 0
-1253 -1269 0
-1253 -1270 0
-1253 -1371 0
-1253 -1372 0
-1253 -1373 0
-1253 -1374 0
-1253 -1375 0
-1253 -1376 0
-1253 -1378 0
-1253 -1379 0
-1253 -1380 0
-1254 -1262 0
-1254 -1263 0
-1254 -1264 0
-1254 -1265 0
-1254 -1266 0
-1254 -1267 0
-1254 -1268 0
-1254 -1269 0
-1254 -1270 0
-1254 -1371 0
-1254 -1372 0
-1254 -1373 0
-1254 -1374 0
-1254 -1375 0
-1254 -1376 0
-1254 -1377 0
-1254 -1379 0
-1254 -1380 0
-1255 -1261 0
-1255 -1262 0
-1255 -1263 0
-1255 -1264 0
-1255 -1265 0
-1255 -1267 0
-1255 -1268 0
-1255 -1270 0
-1255 -1371 0
-1255 -1372 0
-1255 -1374 0
-1255 -1375 0
-1255 -1376 0
-1255 -1377 0
-1255 -1378 0
-1255 -1380 0
-1256 -1261 0
-1256 -1262 0
-1256 -1263 0
-1256 -1264 0
-1256 -1265 0
-1256 -1266 0
-1256 -1268 0
-1256 -1269 0
-1256 -1270 0
-1256 -1371 0
-1256 -1372 0
-1256 -1373 0
-1256 -1375 0
-1256 -1376 0
-1256 -1377 0
-1256 -1378 0
-1256 -1379 0
-1257 -1261 0
-1257 -1262 0
-1257 -1263 0
-1257 -1264 0
-1257 -1265 0
-1257 -1266 0
-1257 -1267 0
-1257 -1269 0
-1257 -1270 0
-1257 -1372 0
-1257 -1373 0
-1257 -1374 0
-1257 -1375 0
-1257 -1376 0
-1257 -1377 0
-1257 -1378 0
-1257 -1379 0
-1257 -1380 0
-1258 -1261 0
-1258 -1263 0
-1258 -1264 0
-1258 -1266 0
-1258 -1267 0
-1258 -1268 0
-1258 -1269 0
-1258 -1270 0
-1258 -1371 0
-1258 -1373 0
-1258 -1374 0
-1258 -1376 0
-1258 -1377 0
-1258 -1378 0
-1258 -1379 0
-1258 -1380 0
-1259 -1261 0
-1259 -1262 0
-1259 -1263 0
-1259 -1264 0
-1259 -1265 0
-1259 -1266 0
-1259 -1267 0
-1259 -1268 0
-1259 -1269 0
-1259 -1371 0
-1259 -1372 0
-1259 -1373 0
-1259 -1375 0
-1259 -1376 0
-1259 -1377 0
-1259 -1378 0
-1259 -1379 0
-1260 -1262 0
-1260 -1263 0
-1260 -1264 0
-1260 -1265 0
-1260 -1266 0
-1260 -1267 0
-1260 -1268 0
-1260 -1269 0
-1260 -1270 0
-1260 -1372 0
-1260 -1373 0
-1260 -1374 0
-1260 -1375 0
-1260 -1376 0
-1260 -1377 0
-1260 -1378 0
-1260 -1379 0
-1260 -1380 0
-1261 -1271 0
-1261 -1273 0
-1261 -1274 0
-1261 -1276 0
-1261 -1277 0
-1261 -1278 0
-1261 -1279 0
-1261 -1280 0
-1261 -1381 0
-1261 -1383 0
-1261 -1384 0
-1261 -1386 0
-1261 -1387 0
-1261 -1388 0
-1261 -1389 0
-1261 -1390 0
-1262 -1271 0
-1262 -1272 0
-1262 -1274 0
-1262 -1275 0
-1262 -1276 0
-1262 -1277 0
-1262 -1278 0
-1262 -1279 0
-1262 -1280 0
-1262 -1381 0
-1262 -1382 0
-1262 -1383 0
-1262 -1384 0
-1262 -1385 0
-1262 -1387 0
-1262 -1388 0
-1262 -1389 0
-1262 -1390 0
-1263 -1271 0
-1263 -1272 0
-1263 -1273 0
-1263 -1275 0
-1263 -1276 0
-1263 -1277 0
-1263 -1278 0
-1263 -1279 0
-1263 -1280 0
-1263 -1381 0
-1263 -1382 0
-1263 -1383 0
-1263 -1384 0
-1263 -1385 0
-1263 -1386 0
-1263 -1388 0
-1263 -1389 0
-1263 -1390 0
-1264 -1272 0
-1264 -1273 0
-1264 -1274 0
-1264 -1275 0
-1264 -1276 0
-1264 -1277 0
-1264 -1278 0
-1264 -1279 0
-1264 -1280 0
-1264 -1381 0
-1264 -1382 0
-1264 -1383 0
-1264 -1384 0
-1264 -1385 0
-1264 -1386 0
-1264 -1387 0
-1264 -1389 0
-1264 -1390 0
-1265 -1271 0
-1265 -1272 0
-1265 -1273 0
-1265 -1274 0
-1265 -1275 0
-1265 -1277 0
-1265 -1278 0
-1265 -1280 0
-1265 -1381 0
-1265 -1382 0
-1265 -1384 0
-1265 -1385 0
-1265 -1386 0
-1265 -1387 0
-1265 -1388 0
-1265 -1390 0
-1266 -1271 0
-1266 -1272 0
-1266 -1273 0
-1266 -1274 0
-1266 -1275 0
-1266 -1276 0
-1266 -1278 0
-1266 -1279 0
-1266 -1280 0
-1266 -1381 0
-1266 -1382 0
-1266 -1383 0
-1266 -1385 0
-1266 -1386 0
-1266 -1387 0
-1266 -1388 0
-1266 -1389 0
-1267 -1271 0
-1267 -1272 0
-1267 -1273 0
-1267 -1274 0
-1267 -1275 0
-1267 -1276 0
-1267 -1277 0
-1267 -1279 0
-1267 -1280 0
-1267 -1382 0
-1267 -1383 0
-1267 -1384 0
-1267 -1385 0
-1267 -1386 0
-1267 -1387 0
-1267 -1388 0
-1267 -1389 0
-1267 -1390 0
-1268 -1271 0
-1268 -1273 0
-1268 -1274 0
-1268 -1276 0
-1268 -1277 0
-1268 -1278 0
-1268 -1279 0
-1268 -1280 0
-1268 -1381 0
-1268 -1383 0
-1268 -1384 0
-1268 -1386 0
-1268 -1387 0
-1268 -1388 0
-1268 -1389 0
-1268 -1390 0
-1269 -1271 0
-1269 -1272 0
-1269 -1273 0
-1269 -1274 0
-1269 -1275 0
-1269 -1276 0
-1269 -1277 0
-1269 -1278 0
-1269 -1279 0
-1269 -1381 0
-1269 -1382 0
-1269 -1383 0
-1269 -1385 0
-1269 -1386 0
-1269 -1387 0
-1269 -1388 0
-1269 -1389 0
-1270 -1272 0
-1270 -1273 0
-1270 -1274 0
-1270 -1275 0
-1270 -1276 0
-1270 -1277 0
-1270 -1278 0
-1270 -1279 0
-1270 -1280 0
-1270 -1382 0
-1270 -1383 0
-1270 -1384 0
-1270 -1385 0
-1270 -1386 0
-1270 -1387 0
-1270 -1388 0
-1270 -1389 0
-1270 -1390 0
-1271 -1281 0
-1271 -1283 0
-1271 -1284 0
-1271 -1286 0
-1271 -1287 0
-1271 -1288 0
-1271 -1289 0
-1271 -1290 0
-1271 -1391 0
-1271 -1393 0
-1271 -1394 0
-1271 -1396 0
-1271 -1397 0
-1271 -1398 0
-1271 -1399 0
-1271 -1400 0
-1272 -1281 0
-1272 -1282 0
-1272 -1284 0
-1272 -1285 0
-1272 -1286 0
-1272 -1287 0
-1272 -1288 0
-1272 -1289 0
-1272 -1290 0
-1272 -1391 0
-1272 -1392 0
-1272 -1393 0
-1272 -1394 0
-1272 -1395 0
-1272 -1397 0
-1272 -1398 0
-1272 -1399 0
-1272 -1400 0
-1273 -1281 0
-1273 -1282 0
-1273 -1283 0
-1273 -1285 0
-1273 -1286 0
-1273 -1287 0
-1273 -1288 0
-1273 -1289 0
-1273 -1290 0
-1273 -1391 0
-1273 -1392 0
-1273 -1393 0
-1273 -1394 0
-1273 -1395 0
-1273 -1396 0
-1273 -1398 0
-1273 -1399 0
-1273 -1400 0
-1274 -1282 0
-1274 -1283 0
-1274 -1284 0
-1274 -1285 0
-1274 -1286 0
-1274 -1287 0
-1274 -1288 0
-1274 -1289 0
-1274 -1290 0
-1274 -1391 0
-1274 -1392 0
-1274 -1393 0
-1274 -1394 0
-1274 -1395 0
-1274 -1396 0
-1274 -1397 0
-1274 -1399 0
-1274 -1400 0
-1275 -1281 0
-1275 -1282 0
-1275 -1283 0
-1275 -1284 0
-1275 -1285 0
-1275 -1287 0
-1275 -1288 0
-1275 -1290 0
-1275 -1391 0
-1275 -1392 0
-1275 -1394 0
-1275 -1395 0
-1275 -1396 0
-1275 -1397 0
-1275 -1398 0
-1275 -1400 0
-1276 -1281 0
-1276 -1282 0
-1276 -1283 0
-1276 -1284 0
-1276 -1285 0
-1276 -1286 0
-1276 -1288 0
-1276 -1289 0
-1276 -1290 0
-1276 -1391 0
-1276 -1392 0
-1276 -1393 0
-1276 -1395 0
-1276 -1396 0
-1276 -1397 0
-1276 -1398 0
-1276 -1399 0
-1277 -1281 0
-1277 -1282 0
-1277 -1283 0
-1277 -1284 0
-1277 -1285 0
-1277 -1286 0
-1277 -1287 0
-1277 -1289 0
-1277 -1290 0
-1277 -1392 0
-1277 -1393 0
-1277 -1394 0
-1277 -1395 0
-1277 -1396 0
-1277 -1397 0
-1277 -1398 0
-1277 -1399 0
-1277 -1400 0
-1278 -1281 0
-1278 -1283 0
-1278 -1284 0
-1278 -1286 0
-1278 -1287 0
-1278 -1288 0
-1278 -1289 0
-1278 -1290 0
-1278 -1391 0
-1278 -1393 0
-1278 -1394 0
-1278 -1396 0
-1278 -1397 0
-1278 -1398 0
-1278 -1399 0
-1278 -1400 0
-1279 -1281 0
-1279 -1282 0
-1279 -1283 0
-1279 -1284 0
-1279 -1285 0
-1279 -1286 0
-1279 -1287 0
-1279 -1288 0
-1279 -1289 0
-1279 -1391 0
-1279 -1392 0
-1279 -1393 0
-1279 -1395 0
-1279 -1396 0
-1279 -1397 0
-1279 -1398 0
-1279 -1399 0
-1280 -1282 0
-1280 -1283 0
-1280 -1284 0
-1280 -1285 0
-1280 -1286 0
-1280 -1287 0
-1280 -1288 0
-1280 -1289 0
-1280 -1290 0
-1280 -1392 0
-1280 -1393 0
-1280 -1394 0
-1280 -1395 0
-1280 -1396 0
-1280 -1397 0
-1280 -1398 0
-1280 -1399 0
-1280 -1400 0
-1281 -1291 0
-1281 -1293 0
-1281 -1294 0
-1281 -1296 0
-1281 -1297 0
-1281 -1298 0
-1281 -1299 0
-1281 -1300 0
-1281 -1401 0
-1281 -1403 0
-1281 -1404 0
-1281 -1406 0
-1281 -1407 0
-1281 -1408 0
-1281 -1409 0
-1281 -1410 0
-1282 -1291 0
-1282 -1292 0
-1282 -1294 0
-1282 -1295 0
-1282 -1296 0
-1282 -1297 0
-1282 -1298 0
-1282 -1299 0
-1282 -1300 0
-1282 -1401 0
-1282 -1402 0
-1282 -1403 0
-1282 -1404 0
-1282 -1405 0
-1282 -1407 0
-1282 -1408 0
-1282 -1409 0
-1282 -1410 0
-1283 -1291 0
-1283 -1292 0
-1283 -1293 0
-1283 -1295 0
-1283 -1296 0
-1283 -1297 0
-1283 -1298 0
-1283 -1299 0
-1283 -1300 0
-1283 -1401 0
-1283 -1402 0
-1283 -1403 0
-1283 -1404 0
-1283 -1405 0
-1283 -1406 0
-1283 -1408 0
-1283 -1409 0
-1283 -1410 0
-1284 -1292 0
-1284 -1293 0
-1284 -1294 0
-1284 -1295 0
-1284 -1296 0
-1284 -1297 0
-1284 -1298 0
-1284 -1299 0
-1284 -1300 0
-1284 -1401 0
-1284 -1402 0
-1284 -1403 0
-1284 -1404 0
-1284 -1405 0
-1284 -1406 0
-1284 -1407 0
-1284 -1409 0
-1284 -1410 0
-1285 -1291 0
-1285 -1292 0
-1285 -1293 0
-1285 -1294 0
-1285 -1295 0
-1285 -1297 0
-1285 -1298 0
-1285 -1300 0
-1285 -1401 0
-1285 -1402 0
-1285 -1404 0
-1285 -1405 0
-1285 -1406 0
-1285 -1407 0
-1285 -1408 0
-1285 -1410 0
-1286 -1291 0
-1286 -1292 0
-1286 -1293 0
-1286 -1294 0
-1286 -1295 0
-1286 -1296 0
-1286 -1298 0
-1286 -1299 0
-1286 -1300 0
-1286 -1401 0
-1286 -1402 0
-1286 -1403 0
-1286 -1405 0
-1286 -1406 0
-1286 -1407 0
-1286 -1408 0
-1286 -1409 0
-1287 -1291 0
-1287 -1292 0
-1287 -1293 0
-1287 -1294 0
-1287 -1295 0
-1287 -1296 0
-1287 -1297 0
-1287 -1299 0
-1287 -1300 0
-1287 -1402 0
-1287 -1403 0
-1287 -1404 0
-1287 -1405 0
-1287 -1406 0
-1287 -1407 0
-1287 -1408 0
-1287 -1409 0
-1287 -1410 0
-1288 -1291 0
-1288 -1293 0
-1288 -1294 0
-1288 -1296 0
-1288 -1297 0
-1288 -1298 0
-1288 -1299 0
-1288 -1300 0
-1288 -1401 0
-1288 -1403 0
-1288 -1404 0
-1288 -1406 0
-1288 -1407 0
-1288 -1408 0
-1288 -1409 0
-1288 -1410 0
-1289 -1291 0
-1289 -1292 0
-1289 -1293 0
-1289 -1294 0
-1289 -1295 0
-1289 -1296 0
-1289 -1297 0
-1289 -1298 0
-1289 -1299 0
-1289 -1401 0
-1289 -1402 0
-1289 -1403 0
-1289 -1405 0
-1289 -1406 0
-1289 -1407 0
-1289 -1408 0
-1289 -1409 0
-1290 -1292 0
-1290 -1293 0
-1290 -1294 0
-1290 -1295 0
-1290 -1296 0
-1290 -1297 0
-1290 -1298 0
-1290 -1299 0
-1290 -1300 0
-1290 -1402 0
-1290 -1403 0
-1290 -1404 0
-1290 -1405 0
-1290 -1406 0
-1290 -1407 0
-1290 -1408 0
-1290 -1409 0
-1290 -1410 0
-1291 -1301 0
-1291 -1303 0
-1291 -1304 0
-1291 -1306 0
-1291 -1307 0
-1291 -1308 0
-1291 -1309 0
-1291 -1310 0
-1291 -1411 0
-1291 -1413 0
-1291 -1414 0
-1291 -1416 0
-1291 -1417 0
-1291 -1418 0
-1291 -1419 0
-1291 -1420 0
-1292 -1301 0
-1292 -1302 0
-1292 -1304 0
-1292 -1305 0
-1292 -1306 0
-1292 -1307 0
-1292 -1308 0
-1292 -1309 0
-1292 -1310 0
-1292 -1411 0
-1292 -1412 0
-1292 -1413 0
-1292 -1414 0
-1292 -1415 0
-1292 -1417 0
-1292 -1418 0
-1292 -1419 0
-1292 -1420 0
-1293 -1301 0
-1293 -1302 0
-1293 -1303 0
-1293 -1305 0
-1293 -1306 0
-1293 -1307 0
-1293 -1308 0
-1293 -1309 0
-1293 -1310 0
-1293 -1411 0
-1293 -1412 0
-1293 -1413 0
-1293 -1414 0
-1293 -1415 0
-1293 -1416 0
-1293 -1418 0
-1293 -1419 0
-1293 -1420 0
-1294 -1302 0
-1294 -1303 0
-1294 -1304 0
-1294 -1305 0
-1294 -1306 0
-1294 -1307 0
-1294 -1308 0
-1294 -1309 0
-1294 -1310 0
-1294 -1411 0
-1294 -1412 0
-1294 -1413 0
-1294 -1414 0
-1294 -1415 0
-1294 -1416 0
-1294 -1417 0
-1294 -1419 0
-1294 -1420 0
-1295 -1301 0
-1295 -1302 0
-1295 -1303 0
-1295 -1304 0
-1295 -1305 0
-1295 -1307 0
-1295 -1308 0
-1295 -1310 0
-1295 -1411 0
-1295 -1412 0
-1295 -1414 0
-1295 -1415 0
-1295 -1416 0
-1295 -1417 0
-1295 -1418 0
-1295 -1420 0
-1296 -1301 0
-1296 -1302 0
-1296 -1303 0
-1296 -1304 0
-1296 -1305 0
-1296 -1306 0
-1296 -1308 0
-1296 -1309 0
-1296 -1310 0
-1296 -1411 0
-1296 -1412 0
-1296 -1413 0
-1296 -1415 0
-1296 -1416 0
-1296 -1417 0
-1296 -1418 0
-1296 -1419 0
-1297 -1301 0
-1297 -1302 0
-1297 -1303 0
-1297 -1304 0
-1297 -1305 0
-1297 -1306 0
-1297 -1307 0
-1297 -1309 0
-1297 -1310 0
-1297 -1412 0
-1297 -1413 0
-1297 -1414 0
-1297 -1415 0
-1297 -1416 0
-1297 -1417 0
-1297 -1418 0
-1297 -1419 0
-1297 -1420 0
-1298 -1301 0
-1298 -1303 0
-1298 -1304 0
-1298 -1306 0
-1298 -1307 0
-1298 -1308 0
-1298 -1309 0
-1298 -1310 0
-1298 -1411 0
-1298 -1413 0
-1298 -1414 0
-1298 -1416 0
-1298 -1417 0
-1298 -1418 0
-1298 -1419 0
-1298 -1420 0
-1299 -1301 0
-1299 -1302 0
-1299 -1303 0
-1299 -1304 0
-1299 -1305 0
-1299 -1306 0
-1299 -1307 0
-1299 -1308 0
-1299 -1309 0
-1299 -1411 0
-1299 -1412 0
-1299 -1413 0
-1299 -1415 0
-1299 -1416 0
-1299 -1417 0
-1299 -1418 0
-1299 -1419 0
-1300 -1302 0
-1300 -1303 0
-1300 -1304 0
-1300 -1305 0
-1300 -1306 0
-1300 -1307 0
-1300 -1308 0
-1300 -1309 0
-1300 -1310 0
-1300 -1412 0
-1300 -1413 0
-1300 -1414 0
-1300 -1415 0
-1300 -1416 0
-1300 -1417 0
-1300 -1418 0
-1300 -1419 0
-1300 -1420 0
-1301 -1311 0
-1301 -1313 0
-1301 -1314 0
-1301 -1316 0
-1301 -1317 0
-1301 -1318 0
-1301 -1319 0
-1301 -1320 0
-1301 -1421 0
-1301 -1423 0
-1301 -1424 0
-1301 -1426 0
-1301 -1427 0
-1301 -1428 0
-1301 -1429 0
-1301 -1430 0
-1302 -1311 0
-1302 -1312 0
-1302 -1314 0
-1302 -1315 0
-1302 -1316 0
-1302 -1317 0
-1302 -1318 0
-1302 -1319 0
-1302 -1320 0
-1302 -1421 0
-1302 -1422 0
-1302 -1423 0
-1302 -1424 0
-1302 -1425 0
-1302 -1427 0
-1302 -1428 0
-1302 -1429 0
-1302 -1430 0
-1303 -1311 0
-1303 -1312 0
-1303 -1313 0
-1303 -1315 0
-1303 -1316 0
-1303 -1317 0
-1303 -1318 0
-1303 -1319 0
-1303 -1320 0
-1303 -1421 0
-1303 -1422 0
-1303 -1423 0
-1303 -1424 0
-1303 -1425 0
-1303 -1426 0
-1303 -1428 0
-1303 -1429 0
-1303 -1430 0
-1304 -1312 0
-1304 -1313 0
-1304 -1314 0
-1304 -1315 0
-1304 -1316 0
-1304 -1317 0
-1304 -1318 0
-1304 -1319 0
-1304 -1320 0
-1304 -1421 0
-1304 -1422 0
-1304 -1423 0
-1304 -1424 0
-1304 -1425 0
-1304 -1426 0
-1304 -1427 0
-1304 -1429 0
-1304 -1430 0
-1305 -1311 0
-1305 -1312 0
-1305 -1313 0
-1305 -1314 0
-1305 -1315 0
-1305 -1317 0
-1305 -1318 0
-1305 -1320 0
-1305 -1421 0
-1305 -1422 0
-1305 -1424 0
-1305 -1425 0
-1305 -1426 0
-1305 -1427 0
-1305 -1428 0
-1305 -1430 0
-1306 -1311 0
-1306 -1312 0
-1306 -1313 0
-1306 -1314 0
-1306 -1315 0
-1306 -1316 0
-1306 -1318 0
-1306 -1319 0
-1306 -1320 0
-1306 -1421 0
-1306 -1422 0
-1306 -1423 0
-1306 -1425 0
-1306 -1426 0
-1306 -1427 0
-1306 -1428 0
-1306 -1429 0
-1307 -1311 0
-1307 -1312 0
-1307 -1313 0
-1307 -1314 0
-1307 -1315 0
-1307 -1316 0
-1307 -1317 0
-1307 -1319 0
-1307 -1320 0
-1307 -1422 0
-1307 -1423 0
-1307 -1424 0
-1307 -1425 0
-1307 -1426 0
-1307 -1427 0
-1307 -1428 0
-1307 -1429 0
-1307 -1430 0
-1308 -1311 0
-1308 -1313 0
-1308 -1314 0
-1308 -1316 0
-1308 -1317 0
-1308 -1318 0
-1308 -1319 0
-1308 -1320 0
-1308 -1421 0
-1308 -1423 0
-1308 -1424 0
-1308 -1426 0
-1308 -1427 0
-1308 -1428 0
-1308 -1429 0
-1308 -1430 0
-1309 -1311 0
-1309 -1312 0
-1309 -1313 0
-1309 -1314 0
-1309 -1315 0
-1309 -1316 0
-1309 -1317 0
-1309 -1318 0
-1309 -1319 0
-1309 -1421 0
-1309 -1422 0
-1309 -1423 0
-1309 -1425 0
-1309 -1426 0
-1309 -1427 0
-1309 -1428 0
-1309 -1429 0
-1310 -1312 0
-1310 -1313 0
-1310 -1314 0
-1310 -1315 0
-1310 -1316 0
-1310 -1317 0
-1310 -1318 0
-1310 -1319 0
-1310 -1320 0
-1310 -1422 0
-1310 -1423 0
-1310 -1424 0
-1310 -1425 0
-1310 -1426 0
-1310 -1427 0
-1310 -1428 0
-1310 -1429 0
-1310 -1430 0
-1311 -1431 0
-1311 -1433 0
-1311 -1434 0
-1311 -1436 0
-1311 -1437 0
-1311 -1438 0
-1311 -1439 0
-1311 -1440 0
-1312 -1431 0
-1312 -1432 0
-1312 -1433 0
-1312 -1434 0
-1312 -1435 0
-1312 -1437 0
-1312 -1438 0
-1312 -1439 0
-1312 -1440 0
-1313 -1431 0
-1313 -1432 0
-1313 -1433 0
-1313 -1434 0
-1313 -1435 0
-1313 -1436 0
-1313 -1438 0
-1313 -1439 0
-1313 -1440 0
-1314 -1431 0
-1314 -1432 0
-1314 -1433 0
-1314 -1434 0
-1314 -1435 0
-1314 -1436 0
-1314 -1437 0
-1314 -1439 0
-1314 -1440 0
-1315 -1431 0
-1315 -1432 0
-1315 -1434 0
-1315 -1435 0
-1315 -1436 0
-1315 -1437 0
-1315 -1438 0
-1315 -1440 0
-1316 -1431 0
-1316 -1432 0
-1316 -1433 0
-1316 -1435 0
-1316 -1436 0
-1316 -1437 0
-1316 -1438 0
-1316 -1439 0
-1317 -1432 0
-1317 -1433 0
-1317 -1434 0
-1317 -1435 0
-1317 -1436 0
-1317 -1437 0
-1317 -1438 0
-1317 -1439 0
-1317 -1440 0
-1318 -1431 0
-1318 -1433 0
-1318 -1434 0
-1318 -1436 0
-1318 -1437 0
-1318 -1438 0
-1318 -1439 0
-1318 -1440 0
-1319 -1431 0
-1319 -1432 0
-1319 -1433 0
-1319 -1435 0
-1319 -1436 0
-1319 -1437 0
-1319 -1438 0
-1319 -1439 0
-1320 -1432 0
-1320 -1433 0
-1320 -1434 0
-1320 -1435 0
-1320 -1436 0
-1320 -1437 0
-1320 -1438 0
-1320 -1439 0
-1320 -1440 0
-1321 -1331 0
-1321 -1333 0
-1321 -1334 0
-1321 -1336 0
-1321 -1337 0
-1321 -1338 0
-1321 -1339 0
-1321 -1340 0
-1322 -1331 0
-1322 -1332 0
-1322 -1334 0
-1322 -1335 0
-1322 -1336 0
-1322 -1337 0
-1322 -1338 0
-1322 -1339 0
-1322 -1340 0
-1323 -1331 0
-1323 -1332 0
-1323 -1333 0
-1323 -1335 0
-1323 -1336 0
-1323 -1337 0
-1323 -1338 0
-1323 -1339 0
-1323 -1340 0
-1324 -1332 0
-1324 -1333 0
-1324 -1334 0
-1324 -1335 0
-1324 -1336 0
-1324 -1337 0
-1324 -1338 0
-1324 -1339 0
-1324 -1340 0
-1325 -1331 0
-1325 -1332 0
-1325 -1333 0
-1325 -1334 0
-1325 -1335 0
-1325 -1337 0
-1325 -1338 0
-1325 -1340 0
-1326 -1331 0
-1326 -1332 0
-1326 -1333 0
-1326 -1334 0
-1326 -1335 0
-1326 -1336 0
-1326 -1338 0
-1326 -1339 0
-1326 -1340 0
-1327 -1331 0
-1327 -1332 0
-1327 -1333 0
-1327 -1334 0
-1327 -1335 0
-1327 -1336 0
-1327 -1337 0
-1327 -1339 0
-1327 -1340 0
-1328 -1331 0
-1328 -1333 0
-1328 -1334 0
-1328 -1336 0
-1328 -1337 0
-1328 -1338 0
-1328 -1339 0
-1328 -1340 0
-1329 -1331 0
-1329 -1332 0
-1329 -1333 0
-1329 -1334 0
-1329 -1335 0
-1329 -1336 0
-1329 -1337 0
-1329 -1338 0
-1329 -1339 0
-1330 -1332 0
-1330 -1333 0
-1330 -1334 0
-1330 -1335 0
-1330 -1336 0
-1330 -1337 0
-1330 -1338 0
-1330 -1339 0
-1330 -1340 0
-1331 -1341 0
-1331 -1343 0
-1331 -1344 0
-1331 -1346 0
-1331 -1347 0
-1331 -1348 0
-1331 -1349 0
-1331 -1350 0
-1332 -1341 0
-1332 -1342 0
-1332 -1344 0
-1332 -1345 0
-1332 -1346 0
-1332 -1347 0
-1332 -1348 0
-1332 -1349 0
-1332 -1350 0
-1333 -1341 0
-1333 -1342 0
-1333 -1343 0
-1333 -1345 0
-1333 -1346 0
-1333 -1347 0
-1333 -1348 0
-1333 -1349 0
-1333 -1350 0
-1334 -1342 0
-1334 -1343 0
-1334 -1344 0
-1334 -1345 0
-1334 -1346 0
-1334 -1347 0
-1334 -1348 0
-1334 -1349 0
-1334 -1350 0
-1335 -1341 0
-1335 -1342 0
-1335 -1343 0
-1335 -1344 0
-1335 -1345 0
-1335 -1347 0
-1335 -1348 0
-1335 -1350 0
-1336 -1341 0
-1336 -1342 0
-1336 -1343 0
-1336 -1344 0
-1336 -1345 0
-1336 -1346 0
-1336 -1348 0
-1336 -1349 0
-1336 -1350 0
-1337 -1341 0
-1337 -1342 0
-1337 -1343 0
-1337 -1344 0
-1337 -1345 0
-1337 -1346 0
-1337 -1347 0
-1337 -1349 0
-1337 -1350 0
-1338 -1341 0
-1338 -1343 0
-1338 -1344 0
-1338 -1346 0
-1338 -1347 0
-1338 -1348 0
-1338 -1349 0
-1338 -1350 0
-1339 -1341 0
-1339 -1342 0
-1339 -1343 0
-1339 -1344 0
-1339 -1345 0
-1339 -1346 0
-1339 -1347 0
-1339 -1348 0
-1339 -1349 0
-1340 -1342 0
-1340 -1343 0
-1340 -1344 0
-1340 -1345 0
-1340 -1346 0
-1340 -1347 0
-1340 -1348 0
-1340 -1349 0
-1340 -1350 0
-1341 -1351 0
-1341 -1353 0
-1341 -1354 0
-1341 -1356 0
-1341 -1357 0
-1341 -1358 0
-1341 -1359 0
-1341 -1360 0
-1342 -1351 0
-1342 -1352 0
-1342 -1354 0
-1342 -1355 0
-1342 -1356 0
-1342 -1357 0
-1342 -1358 0
-1342 -1359 0
-1342 -1360 0
-1343 -1351 0
-1343 -1352 0
-1343 -1353 0
-1343 -1355 0
-1343 -1356 0
-1343 -1357 0
-1343 -1358 0
-1343 -1359 0
-1343 -1360 0
-1344 -1352 0
-1344 -1353 0
-1344 -1354 0
-1344 -1355 0
-1344 -1356 0
-1344 -1357 0
-1344 -1358 0
-1344 -1359 0
-1344 -1360 0
-1345 -1351 0
-1345 -1352 0
-1345 -1353 0
-1345 -1354 0
-1345 -1355 0
-1345 -1357 0
-1345 -1358 0
-1345 -1360 0
-1346 -1351 0
-1346 -1352 0
-1346 -1353 0
-1346 -1354 0
-1346 -1355 0
-1346 -1356 0
-1346 -1358 0
-1346 -1359 0
-1346 -1360 0
-1347 -1351 0
-1347 -1352 0
-1347 -1353 0
-1347 -1354 0
-1347 -1355 0
-1347 -1356 0
-1347 -1357 0
-1347 -1359 0
-1347 -1360 0
-1348 -1351 0
-1348 -1353 0
-1348 -1354 0
-1348 -1356 0
-1348 -1357 0
-1348 -1358 0
-1348 -1359 0
-1348 -1360 0
-1349 -1351 0
-1349 -1352 0
-1349 -1353 0
-1349 -1354 0
-1349 -1355 0
-1349 -1356 0
-1349 -1357 0
-1349 -1358 0
-1349 -1359 0
-1350 -1352 0
-1350 -1353 0
-1350 -1354 0
-1350 -1355 0
-1350 -1356 0
-1350 -1357 0
-1350 -1358 0
-1350 -1359 0
-1350 -1360 0
-1351 -1361 0
-1351 -1363 0
-1351 -1364 0
-1351 -1366 0
-1351 -1367 0
-1351 -1368 0
-1351 -1369 0
-1351 -1370 0
-1352 -1361 0
-1352 -1362 0
-1352 -1364 0
-1352 -1365 0
-1352 -1366 0
-1352 -1367 0
-1352 -1368 0
-1352 -1369 0
-1352 -1370 0
-1353 -1361 0
-1353 -1362 0
-1353 -1363 0
-1353 -1365 0
-1353 -1366 0
-1353 -1367 0
-1353 -1368 0
-1353 -1369 0
-1353 -1370 0
-1354 -1362 0
-1354 -1363 0
-1354 -1364 0
-1354 -1365 0
-1354 -1366 0
-1354 -1367 0
-1354 -1368 0
-1354 -1369 0
-1354 -1370 0
-1355 -1361 0
-1355 -1362 0
-1355 -1363 0
-1355 -1364 0
-1355 -1365 0
-1355 -1367 0
-1355 -1368 0
-1355 -1370 0
-1356 -1361 0
-1356 -1362 0
-1356 -1363 0
-1356 -1364 0
-1356 -1365 0
-1356 -1366 0
-1356 -1368 0
-1356 -1369 0
-1356 -1370 0
-1357 -1361 0
-1357 -1362 0
-1357 -1363 0
-1357 -1364 0
-1357 -1365 0
-1357 -1366 0
-1357 -1367 0
-1357 -1369 0
-1357 -1370 0
-1358 -1361 0
-1358 -1363 0
-1358 -1364 0
-1358 -1366 0
-1358 -1367 0
-1358 -1368 0
-1358 -1369 0
-1358 -1370 0
-1359 -1361 0
-1359 -1362 0
-1359 -1363 0
-1359 -1364 0
-1359 -1365 0
-1359 -1366 0
-1359 -1367 0
-1359 -1368 0
-1359 -1369 0
-1360 -1362 0
-1360 -1363 0
-1360 -1364 0
-1360 -1365 0
-1360 -1366 0
-1360 -1367 0
-1360 -1368 0
-1360 -1369 0
-1360 -1370 0
-1361 -1371 0
-1361 -1373 0
-1361 -1374 0
-1361 -1376 0
-1361 -1377 0
-1361 -1378 0
-1361 -1379 0
-1361 -1380 0
-1362 -1371 0
-1362 -1372 0
-1362 -1374 0
-1362 -1375 0
-1362 -1376 0
-1362 -1377 0
-1362 -1378 0
-1362 -1379 0
-1362 -1380 0
-1363 -1371 0
-1363 -1372 0
-1363 -1373 0
-1363 -1375 0
-1363 -1376 0
-1363 -1377 0
-1363 -1378 0
-1363 -1379 0
-1363 -1380 0
-1364 -1372 0
-1364 -1373 0
-1364 -1374 0
-1364 -1375 0
-1364 -1376 0
-1364 -1377 0
-1364 -1378 0
-1364 -1379 0
-1364 -1380 0
-1365 -1371 0
-1365 -1372 0
-1365 -1373 0
-1365 -1374 0
-1365 -1375 0
-1365 -1377 0
-1365 -1378 0
-1365 -1380 0
-1366 -1371 0
-1366 -1372 0
-1366 -1373 0
-1366 -1374 0
-1366 -1375 0
-1366 -1376 0
-1366 -1378 0
-1366 -1379 0
-1366 -1380 0
-1367 -1371 0
-1367 -1372 0
-1367 -1373 0
-1367 -1374 0
-1367 -1375 0
-1367 -1376 0
-1367 -1377 0
-1367 -1379 0
-1367 -1380 0
-1368 -1371 0
-1368 -1373 0
-1368 -1374 0
-1368 -1376 0
-1368 -1377 0
-1368 -1378 0
-1368 -1379 0
-1368 -1380 0
-1369 -1371 0
-1369 -1372 0
-1369 -1373 0
-1369 -1374 0
-1369 -1375 0
-1369 -1376 0
-1369 -1377 0
-1369 -1378 0
-1369 -1379 0
-1370 -1372 0
-1370 -1373 0
-1370 -1374 0
-1370 -1375 0
-1370 -1376 0
-1370 -1377 0
-1370 -1378 0
-1370 -1379 0
-1370 -1380 0
-1371 -1381 0
-1371 -1383 0
-1371 -1384 0
-1371 -1386 0
-1371 -1387 0
-1371 -1388 0
-1371 -1389 0
-1371 -1390 0
-1372 -1381 0
-1372 -1382 0
-1372 -1384 0
-1372 -1385 0
-1372 -1386 0
-1372 -1387 0
-1372 -1388 0
-1372 -1389 0
-1372 -1390 0
-1373 -1381 0
-1373 -1382 0
-1373 -1383 0
-1373 -1385 0
-1373 -1386 0
-1373 -1387 0
-1373 -1388 0
-1373 -1389 0
-1373 -1390 0
-1374 -1382 0
-1374 -1383 0
-1374 -1384 0
-1374 -1385 0
-1374 -1386 0
-1374 -1387 0
-1374 -1388 0
-1374 -1389 0
-1374 -1390 0
-1375 -1381 0
-1375 -1382 0
-1375 -1383 0
-1375 -1384 0
-1375 -1385 0
-1375 -1387 0
-1375 -1388 0
-1375 -1390 0
-1376 -1381 0
-1376 -1382 0
-1376 -1383 0
-1376 -1384 0
-1376 -1385 0
-1376 -1386 0
-1376 -1388 0
-1376 -1389 0
-1376 -1390 0
-1377 -1381 0
-1377 -1382 0
-1377 -1383 0
-1377 -1384 0
-1377 -1385 0
-1377 -1386 0
-1377 -1387 0
-1377 -1389 0
-1377 -1390 0
-1378 -1381 0
-1378 -1383 0
-1378 -1384 0
-1378 -1386 0
-1378 -1387 0
-1378 -1388 0
-1378 -1389 0
-1378 -1390 0
-1379 -1381 0
-1379 -1382 0
-1379 -1383 0
-1379 -1384 0
-1379 -1385 0
-1379 -1386 0
-1379 -1387 0
-1379 -1388 0
-1379 -1389 0
-1380 -1382 0
-1380 -1383 0
-1380 -1384 0
-1380 -1385 0
-1380 -1386 0
-1380 -1387 0
-1380 -1388 0
-1380 -1389 0
-1380 -1390 0
-1381 -1391 0
-1381 -1393 0
-1381 -1394 0
-1381 -1396 0
-1381 -1397 0
-1381 -1398 0
-1381 -1399 0
-1381 -1400 0
-1382 -1391 0
-1382 -1392 0
-1382 -1394 0
-1382 -1395 0
-1382 -1396 0
-1382 -1397 0
-1382 -1398 0
-1382 -1399 0
-1382 -1400 0
-1383 -1391 0
-1383 -1392 0
-1383 -1393 0
-1383 -1395 0
-1383 -1396 0
-1383 -1397 0
-1383 -1398 0
-1383 -1399 0
-1383 -1400 0
-1384 -1392 0
-1384 -1393 0
-1384 -1394 0
-1384 -1395 0
-1384 -1396 0
-1384 -1397 0
-1384 -1398 0
-1384 -1399 0
-1384 -1400 0
-1385 -1391 0
-1385 -1392 0
-1385 -1393 0
-1385 -1394 0
-1385 -1395 0
-1385 -1397 0
-1385 -1398 0
-1385 -1400 0
-1386 -1391 0
-1386 -1392 0
-1386 -1393 0
-1386 -1394 0
-1386 -1395 0
-1386 -1396 0
-1386 -1398 0
-1386 -1399 0
-1386 -1400 0
-1387 -1391 0
-1387 -1392 0
-1387 -1393 0
-1387 -1394 0
-1387 -1395 0
-1387 -1396 0
-1387 -1397 0
-1387 -1399 0
-1387 -1400 0
-1388 -1391 0
-1388 -1393 0
-1388 -1394 0
-1388 -1396 0
-1388 -1397 0
-1388 -1398 0
-1388 -1399 0
-1388 -1400 0
-1389 -1391 0
-1389 -1392 0
-1389 -1393 0
-1389 -1394 0
-1389 -1395 0
-1389 -1396 0
-1389 -1397 0
-1389 -1398 0
-1389 -1399 0
-1390 -1392 0
-1390 -1393 0
-1390 -1394 0
-1390 -1395 0
-1390 -1396 0
-1390 -1397 0
-1390 -1398 0
-1390 -1399 0
-1390 -1400 0
-1391 -1401 0
-1391 -1403 0
-1391 -1404 0
-1391 -1406 0
-1391 -1407 0
-1391 -1408 0
-1391 -1409 0
-1391 -1410 0
-1392 -1401 0
-1392 -1402 0
-1392 -1404 0
-1392 -1405 0
-1392 -1406 0
-1392 -1407 0
-1392 -1408 0
-1392 -1409 0
-1392 -1410 0
-1393 -1401 0
-1393 -1402 0
-1393 -1403 0
-1393 -1405 0
-1393 -1406 0
-1393 -1407 0
-1393 -1408 0
-1393 -1409 0
-1393 -1410 0
-1394 -1402 0
-1394 -1403 0
-1394 -1404 0
-1394 -1405 0
-1394 -1406 0
-1394 -1407 0
-1394 -1408 0
-1394 -1409 0
-1394 -1410 0
-1395 -1401 0
-1395 -1402 0
-1395 -1403 0
-1395 -1404 0
-1395 -1405 0
-1395 -1407 0
-1395 -1408 0
-1395 -1410 0
-1396 -1401 0
-1396 -1402 0
-1396 -1403 0
-1396 -1404 0
-1396 -1405 0
-1396 -1406 0
-1396 -1408 0
-1396 -1409 0
-1396 -1410 0
-1397 -1401 0
-1397 -1402 0
-1397 -1403 0
-1397 -1404 0
-1397 -1405 0
-1397 -1406 0
-1397 -1407 0
-1397 -1409 0
-1397 -1410 0
-1398 -1401 0
-1398 -1403 0
-1398 -1404 0
-1398 -1406 0
-1398 -1407 0
-1398 -1408 0
-1398 -1409 0
-1398 -1410 0
-1399 -1401 0
-1399 -1402 0
-1399 -1403 0
-1399 -1404 0
-1399 -1405 0
-1399 -1406 0
-1399 -1407 0
-1399 -1408 0
-1399 -1409 0
-1400 -1402 0
-1400 -1403 0
-1400 -1404 0
-1400 -1405 0
-1400 -1406 0
-1400 -1407 0
-1400 -1408 0
-1400 -1409 0
-1400 -1410 0
-1401 -1411 0
-1401 -1413 0
-1401 -1414 0
-1401 -1416 0
-1401 -1417 0
-1401 -1418 0
-1401 -1419 0
-1401 -1420 0
-1402 -1411 0
-1402 -1412 0
-1402 -1414 0
-1402 -1415 0
-1402 -1416 0
-1402 -1417 0
-1402 -1418 0
-1402 -1419 0
-1402 -1420 0
-1403 -1411 0
-1403 -1412 0
-1403 -1413 0
-1403 -1415 0
-1403 -1416 0
-1403 -1417 0
-1403 -1418 0
-1403 -1419 0
-1403 -1420 0
-1404 -1412 0
-1404 -1413 0
-1404 -1414 0
-1404 -1415 0
-1404 -1416 0
-1404 -1417 0
-1404 -1418 0
-1404 -1419 0
-1404 -1420 0
-1405 -1411 0
-1405 -1412 0
-1405 -1413 0
-1405 -1414 0
-1405 -1415 0
-1405 -1417 0
-1405 -1418 0
-1405 -1420 0
-1406 -1411 0
-1406 -1412 0
-1406 -1413 0
-1406 -1414 0
-1406 -1415 0
-1406 -1416 0
-1406 -1418 0
-1406 -1419 0
-1406 -1420 0
-1407 -1411 0
-1407 -1412 0
-1407 -1413 0
-1407 -1414 0
-1407 -1415 0
-1407 -1416 0
-1407 -1417 0
-1407 -1419 0
-1407 -1420 0
-1408 -1411 0
-1408 -1413 0
-1408 -1414 0
-1408 -1416 0
-1408 -1417 0
-1408 -1418 0
-1408 -1419 0
-1408 -1420 0
-1409 -1411 0
-1409 -1412 0
-1409 -1413 0
-1409 -1414 0
-1409 -1415 0
-1409 -1416 0
-1409 -1417 0
-1409 -1418 0
-1409 -1419 0
-1410 -1412 0
-1410 -1413 0
-1410 -1414 0
-1410 -1415 0
-1410 -1416 0
-1410 -1417 0
-1410 -1418 0
-1410 -1419 0
-1410 -1420 0
-1411 -1421 0
-1411 -1423 0
-1411 -1424 0
-1411 -1426 0
-1411 -1427 0
-1411 -1428 0
-1411 -1429 0
-1411 -1430 0
-1412 -1421 0
-1412 -1422 0
-1412 -1424 0
-1412 -1425 0
-1412 -1426 0
-1412 -1427 0
-1412 -1428 0
-1412 -1429 0
-1412 -1430 0
-1413 -1421 0
-1413 -1422 0
-1413 -1423 0
-1413 -1425 0
-1413 -1426 0
-1413 -1427 0
-1413 -1428 0
-1413 -1429 0
-1413 -1430 0
-1414 -1422 0
-1414 -1423 0
-1414 -1424 0
-1414 -1425 0
-1414 -1426 0
-1414 -1427 0
-1414 -1428 0
-1414 -1429 0
-1414 -1430 0
-1415 -1421 0
-1415 -1422 0
-1415 -1423 0
-1415 -1424 0
-1415 -1425 0
-1415 -1427 0
-1415 -1428 0
-1415 -1430 0
-1416 -1421 0
-1416 -1422 0
-1416 -1423 0
-1416 -1424 0
-1416 -1425 0
-1416 -1426 0
-1416 -1428 0
-1416 -1429 0
-1416 -1430 0
-1417 -1421 0
-1417 -1422 0
-1417 -1423 0
-1417 -1424 0
-1417 -1425 0
-1417 -1426 0
-1417 -1427 0
-1417 -1429 0
-1417 -1430 0
-1418 -1421 0
-1418 -1423 0
-1418 -1424 0
-1418 -1426 0
-1418 -1427 0
-1418 -1428 0
-1418 -1429 0
-1418 -1430 0
-1419 -1421 0
-1419 -1422 0
-1419 -1423 0
-1419 -1424 0
-1419 -1425 0
-1419 -1426 0
-1419 -1427 0
-1419 -1428 0
-1419 -1429 0
-1420 -1422 0
-1420 -1423 0
-1420 -1424 0
-1420 -1425 0
-1420 -1426 0
-1420 -1427 0
-1420 -1428 0
-1420 -1429 0
-1420 -1430 0
-1421 -1431 0
-1421 -1433 0
-1421 -1434 0
-1421 -1436 0
-1421 -1437 0
-1421 -1438 0
-1421 -1439 0
-1421 -1440 0
-1422 -1431 0
-1422 -1432 0
-1422 -1434 0
-1422 -1435 0
-1422 -1436 0
-1422 -1437 0
-1422 -1438 0
-1422 -1439 0
-1422 -1440 0
-1423 -1431 0
-1423 -1432 0
-1423 -1433 0
-1423 -1435 0
-1423 -1436 0
-1423 -1437 0
-1423 -1438 0
-1423 -1439 0
-1423 -1440 0
-1424 -1432 0
-1424 -1433 0
-1424 -1434 0
-1424 -1435 0
-1424 -1436 0
-1424 -1437 0
-1424 -1438 0
-1424 -1439 0
-1424 -1440 0
-1425 -1431 0
-1425 -1432 0
-1425 -1433 0
-1425 -1434 0
-1425 -1435 0
-1425 -1437 0
-1425 -1438 0
-1425 -1440 0
-1426 -1431 0
-1426 -1432 0
-1426 -1433 0
-1426 -1434 0
-1426 -1435 0
-1426 -1436 0
-1426 -1438 0
-1426 -1439 0
-1426 -1440 0
-1427 -1431 0
-1427 -1432 0
-1427 -1433 0
-1427 -1434 0
-1427 -1435 0
-1427 -1436 0
-1427 -1437 0
-1427 -1439 0
-1427 -1440 0
-1428 -1431 0
-1428 -1433 0
-1428 -1434 0
-1428 -1436 0
-1428 -1437 0
-1428 -1438 0
-1428 -1439 0
-1428 -1440 0
-1429 -1431 0
-1429 -1432 0
-1429 -1433 0
-1429 -1434 0
-1429 -1435 0
-1429 -1436 0
-1429 -1437 0
-1429 -1438 0
-1429 -1439 0
-1430 -1432 0
-1430 -1433 0
-1430 -1434 0
-1430 -1435 0
-1430 -1436 0
-1430 -1437 0
-1430 -1438 0
-1430 -1439 0
-1430 -1440 0
