p cnf 160 2800
1 2 3 4 5 6 7 8 9 10 0
-1 -2 0
-1 -3 0
-1 -4 0
-1 -5 0
-1 -6 0
-1 -7 0
-1 -8 0
-1 -9 0
-1 -10 0
-2 -3 0
-2 -4 0
-2 -5 0
-2 -6 0
-2 -7 0
-2 -8 0
-2 -9 0
-2 -10 0
-3 -4 0
-3 -5 0
-3 -6 0
-3 -7 0
-3 -8 0
-3 -9 0
-3 -10 0
-4 -5 0
-4 -6 0
-4 -7 0
-4 -8 0
-4 -9 0
-4 -10 0
-5 -6 0
-5 -7 0
-5 -8 0
-5 -9 0
-5 -10 0
-6 -7 0
-6 -8 0
-6 -9 0
-6 -10 0
-7 -8 0
-7 -9 0
-7 -10 0
-8 -9 0
-8 -10 0
-9 -10 0
11 12 13 14 15 16 17 18 19 20 0
-11 -12 0
-11 -13 0
-11 -14 0
-11 -15 0
-11 -16 0
-11 -17 0
-11 -18 0
-11 -19 0
-11 -20 0
-12 -13 0
-12 -14 0
-12 -15 0
-12 -16 0
-12 -17 0
-12 -18 0
-12 -19 0
-12 -20 0
-13 -14 0
-13 -15 0
-13 -16 0
-13 -17 0
-13 -18 0
-13 -19 0
-13 -20 0
-14 -15 0
-14 -16 0
-14 -17 0
-14 -18 0
-14 -19 0
-14 -20 0
-15 -16 0
-15 -17 0
-15 -18 0
-15 -19 0
-15 -20 0
-16 -17 0
-16 -18 0
-16 -19 0
-16 -20 0
-17 -18 0
-17 -19 0
-17 -20 0
-18 -19 0
-18 -20 0
-19 -20 0
21 22 23 24 25 26 27 28 29 30 0
-21 -22 0
-21 -23 0
-21 -24 0
-21 -25 0
-21 -26 0
-21 -27 0
-21 -28 0
-21 -29 0
-21 -30 0
-22 -23 0
-22 -24 0
-22 -25 0
-22 -26 0
-22 -27 0
-22 -28 0
-22 -29 0
-22 -30 0
-23 -24 0
-23 -25 0
-23 -26 0
-23 -27 0
-23 -28 0
-23 -29 0
-23 -30 0
-24 -25 0
-24 -26 0
-24 -27 0
-24 -28 0
-24 -29 0
-24 -30 0
-25 -26 0
-25 -27 0
-25 -28 0
-25 -29 0
-25 -30 0
-26 -27 0
-26 -28 0
-26 -29 0
-26 -30 0
-27 -28 0
-27 -29 0
-27 -30 0
-28 -29 0
-28 -30 0
-29 -30 0
31 32 33 34 35 36 37 38 39 40 0
-31 -32 0
-31 -33 0
-31 -34 0
-31 -35 0
-31 -36 0
-31 -37 0
-31 -38 0
-31 -39 0
-31 -40 0
-32 -33 0
-32 -34 0
-32 -35 0
-32 -36 0
-32 -37 0
-32 -38 0
-32 -39 0
-32 -40 0
-33 -34 0
-33 -35 0
-33 -36 0
-33 -37 0
-33 -38 0
-33 -39 0
-33 -40 0
-34 -35 0
-34 -36 0
-34 -37 0
-34 -38 0
-34 -39 0
-34 -40 0
-35 -36 0
-35 -37 0
-35 -38 0
-35 -39 0
-35 -40 0
-36 -37 0
-36 -38 0
-36 -39 0
-36 -40 0
-37 -38 0
-37 -39 0
-37 -40 0
-38 -39 0
-38 -40 0
-39 -40 0
41 42 43 44 45 46 47 48 49 50 0
-41 -42 0
-41 -43 0
-41 -44 0
-41 -45 0
-41 -46 0
-41 -47 0
-41 -48 0
-41 -49 0
-41 -50 0
-42 -43 0
-42 -44 0
-42 -45 0
-42 -46 0
-42 -47 0
-42 -48 0
-42 -49 0
-42 -50 0
-43 -44 0
-43 -45 0
-43 -46 0
-43 -47 0
-43 -48 0
-43 -49 0
-43 -50 0
-44 -45 0
-44 -46 0
-44 -47 0
-44 -48 0
-44 -49 0
-44 -50 0
-45 -46 0
-45 -47 0
-45 -48 0
-45 -49 0
-45 -50 0
-46 -47 0
-46 -48 0
-46 -49 0
-46 -50 0
-47 -48 0
-47 -49 0
-47 -50 0
-48 -49 0
-48 -50 0
-49 -50 0
51 52 53 54 55 56 57 58 59 60 0
-51 -52 0
-51 -53 0
-51 -54 0
-51 -55 0
-51 -56 0
-51 -57 0
-51 -58 0
-51 -59 0
-51 -60 0
-52 -53 0
-52 -54 0
-52 -55 0
-52 -56 0
-52 -57 0
-52 -58 0
-52 -59 0
-52 -60 0
-53 -54 0
-53 -55 0
-53 -56 0
-53 -57 0
-53 -58 0
-53 -59 0
-53 -60 0
-54 -55 0
-54 -56 0
-54 -57 0
-54 -58 0
-54 -59 0
-54 -60 0
-55 -56 0
-55 -57 0
-55 -58 0
-55 -59 0
-55 -60 0
-56 -57 0
-56 -58 0
-56 -59 0
-56 -60 0
-57 -58 0
-57 -59 0
-57 -60 0
-58 -59 0
-58 -60 0
-59 -60 0
61 62 63 64 65 66 67 68 69 70 0
-61 -62 0
-61 -63 0
-61 -64 0
-61 -65 0
-61 -66 0
-61 -67 0
-61 -68 0
-61 -69 0
-61 -70 0
-62 -63 0
-62 -64 0
-62 -65 0
-62 -66 0
-62 -67 0
-62 -68 0
-62 -69 0
-62 -70 0
-63 -64 0
-63 -65 0
-63 -66 0
-63 -67 0
-63 -68 0
-63 -69 0
-63 -70 0
-64 -65 0
-64 -66 0
-64 -67 0
-64 -68 0
-64 -69 0
-64 -70 0
-65 -66 0
-65 -67 0
-65 -68 0
-65 -69 0
-65 -70 0
-66 -67 0
-66 -68 0
-66 -69 0
-66 -70 0
-67 -68 0
-67 -69 0
-67 -70 0
-68 -69 0
-68 -70 0
-69 -70 0
71 72 73 74 75 76 77 78 79 80 0
-71 -72 0
-71 -73 0
-71 -74 0
-71 -75 0
-71 -76 0
-71 -77 0
-71 -78 0
-71 -79 0
-71 -80 0
-72 -73 0
-72 -74 0
-72 -75 0
-72 -76 0
-72 -77 0
-72 -78 0
-72 -79 0
-72 -80 0
-73 -74 0
-73 -75 0
-73 -76 0
-73 -77 0
-73 -78 0
-73 -79 0
-73 -80 0
-74 -75 0
-74 -76 0
-74 -77 0
-74 -78 0
-74 -79 0
-74 -80 0
-75 -76 0
-75 -77 0
-75 -78 0
-75 -79 0
-75 -80 0
-76 -77 0
-76 -78 0
-76 -79 0
-76 -80 0
-77 -78 0
-77 -79 0
-77 -80 0
-78 -79 0
-78 -80 0
-79 -80 0
81 82 83 84 85 86 87 88 89 90 0
-81 -82 0
-81 -83 0
-81 -84 0
-81 -85 0
-81 -86 0
-81 -87 0
-81 -88 0
-81 -89 0
-81 -90 0
-82 -83 0
-82 -84 0
-82 -85 0
-82 -86 0
-82 -87 0
-82 -88 0
-82 -89 0
-82 -90 0
-83 -84 0
-83 -85 0
-83 -86 0
-83 -87 0
-83 -88 0
-83 -89 0
-83 -90 0
-84 -85 0
-84 -86 0
-84 -87 0
-84 -88 0
-84 -89 0
-84 -90 0
-85 -86 0
-85 -87 0
-85 -88 0
-85 -89 0
-85 -90 0
-86 -87 0
-86 -88 0
-86 -89 0
-86 -90 0
-87 -88 0
-87 -89 0
-87 -90 0
-88 -89 0
-88 -90 0
-89 -90 0
91 92 93 94 95 96 97 98 99 100 0
-91 -92 0
-91 -93 0
-91 -94 0
-91 -95 0
-91 -96 0
-91 -97 0
-91 -98 0
-91 -99 0
-91 -100 0
-92 -93 0
-92 -94 0
-92 -95 0
-92 -96 0
-92 -97 0
-92 -98 0
-92 -99 0
-92 -100 0
-93 -94 0
-93 -95 0
-93 -96 0
-93 -97 0
-93 -98 0
-93 -99 0
-93 -100 0
-94 -95 0
-94 -96 0
-94 -97 0
-94 -98 0
-94 -99 0
-94 -100 0
-95 -96 0
-95 -97 0
-95 -98 0
-95 -99 0
-95 -100 0
-96 -97 0
-96 -98 0
-96 -99 0
-96 -100 0
-97 -98 0
-97 -99 0
-97 -100 0
-98 -99 0
-98 -100 0
-99 -100 0
101 102 103 104 105 106 107 108 109 110 0
-101 -102 0
-101 -103 0
-101 -104 0
-101 -105 0
-101 -106 0
-101 -107 0
-101 -108 0
-101 -109 0
-101 -110 0
-102 -103 0
-102 -104 0
-102 -105 0
-102 -106 0
-102 -107 0
-102 -108 0
-102 -109 0
-102 -110 0
-103 -104 0
-103 -105 0
-103 -106 0
-103 -107 0
-103 -108 0
-103 -109 0
-103 -110 0
-104 -105 0
-104 -106 0
-104 -107 0
-104 -108 0
-104 -109 0
-104 -110 0
-105 -106 0
-105 -107 0
-105 -108 0
-105 -109 0
-105 -110 0
-106 -107 0
-106 -108 0
-106 -109 0
-106 -110 0
-107 -108 0
-107 -109 0
-107 -110 0
-108 -109 0
-108 -110 0
-109 -110 0
111 112 113 114 115 116 117 118 119 120 0
-111 -112 0
-111 -113 0
-111 -114 0
-111 -115 0
-111 -116 0
-111 -117 0
-111 -118 0
-111 -119 0
-111 -120 0
-112 -113 0
-112 -114 0
-112 -115 0
-112 -116 0
-112 -117 0
-112 -118 0
-112 -119 0
-112 -120 0
-113 -114 0
-113 -115 0
-113 -116 0
-113 -117 0
-113 -118 0
-113 -119 0
-113 -120 0
-114 -115 0
-114 -116 0
-114 -117 0
-114 -118 0
-114 -119 0
-114 -120 0
-115 -116 0
-115 -117 0
-115 -118 0
-115 -119 0
-115 -120 0
-116 -117 0
-116 -118 0
-116 -119 0
-116 -120 0
-117 -118 0
-117 -119 0
-117 -120 0
-118 -119 0
-118 -120 0
-119 -120 0
121 122 123 124 125 126 127 128 129 130 0
-121 -122 0
-121 -123 0
-121 -124 0
-121 -125 0
-121 -126 0
-121 -127 0
-121 -128 0
-121 -129 0
-121 -130 0
-122 -123 0
-122 -124 0
-122 -125 0
-122 -126 0
-122 -127 0
-122 -128 0
-122 -129 0
-122 -130 0
-123 -124 0
-123 -125 0
-123 -126 0
-123 -127 0
-123 -128 0
-123 -129 0
-123 -130 0
-124 -125 0
-124 -126 0
-124 -127 0
-124 -128 0
-124 -129 0
-124 -130 0
-125 -126 0
-125 -127 0
-125 -128 0
-125 -129 0
-125 -130 0
-126 -127 0
-126 -128 0
-126 -129 0
-126 -130 0
-127 -128 0
-127 -129 0
-127 -130 0
-128 -129 0
-128 -130 0
-129 -130 0
131 132 133 134 135 136 137 138 139 140 0
-131 -132 0
-131 -133 0
-131 -134 0
-131 -135 0
-131 -136 0
-131 -137 0
-131 -138 0
-131 -139 0
-131 -140 0
-132 -133 0
-132 -134 0
-132 -135 0
-132 -136 0
-132 -137 0
-132 -138 0
-132 -139 0
-132 -140 0
-133 -134 0
-133 -135 0
-133 -136 0
-133 -137 0
-133 -138 0
-133 -139 0
-133 -140 0
-134 -135 0
-134 -136 0
-134 -137 0
-134 -138 0
-134 -139 0
-134 -140 0
-135 -136 0
-135 -137 0
-135 -138 0
-135 -139 0
-135 -140 0
-136 -137 0
-136 -138 0
-136 -139 0
-136 -140 0
-137 -138 0
-137 -139 0
-137 -140 0
-138 -139 0
-138 -140 0
-139 -140 0
141 142 143 144 145 146 147 148 149 150 0
-141 -142 0
-141 -143 0
-141 -144 0
-141 -145 0
-141 -146 0
-141 -147 0
-141 -148 0
-141 -149 0
-141 -150 0
-142 -143 0
-142 -144 0
-142 -145 0
-142 -146 0
-142 -147 0
-142 -148 0
-142 -149 0
-142 -150 0
-143 -144 0
-143 -145 0
-143 -146 0
-143 -147 0
-143 -148 0
-143 -149 0
-143 -150 0
-144 -145 0
-144 -146 0
-144 -147 0
-144 -148 0
-144 -149 0
-144 -150 0
-145 -146 0
-145 -147 0
-145 -148 0
-145 -149 0
-145 -150 0
-146 -147 0
-146 -148 0
-146 -149 0
-146 -150 0
-147 -148 0
-147 -149 0
-147 -150 0
-148 -149 0
-148 -150 0
-149 -150 0
151 152 153 154 155 156 157 158 159 160 0
-151 -152 0
-151 -153 0
-151 -154 0
-151 -155 0
-151 -156 0
-151 -157 0
-151 -158 0
-151 -159 0
-151 -160 0
-152 -153 0
-152 -154 0
-152 -155 0
-152 -156 0
-152 -157 0
-152 -158 0
-152 -159 0
-152 -160 0
-153 -154 0
-153 -155 0
-153 -156 0
-153 -157 0
-153 -158 0
-153 -159 0
-153 -160 0
-154 -155 0
-154 -156 0
-154 -157 0
-154 -158 0
-154 -159 0
-154 -160 0
-155 -156 0
-155 -157 0
-155 -158 0
-155 -159 0
-155 -160 0
-156 -157 0
-156 -158 0
-156 -159 0
-156 -160 0
-157 -158 0
-157 -159 0
-157 -160 0
-158 -159 0
-158 -160 0
-159 -160 0
-1 -11 0
-1 -13 0
-1 -14 0
-1 -16 0
-1 -17 0
-1 -18 0
-1 -19 0
-1 -20 0
-1 -41 0
-1 -43 0
-1 -44 0
-1 -46 0
-1 -47 0
-1 -48 0
-1 -49 0
-1 -50 0
-2 -11 0
-2 -12 0
-2 -14 0
-2 -15 0
-2 -16 0
-2 -17 0
-2 -18 0
-2 -19 0
-2 -20 0
-2 -41 0
-2 -42 0
-2 -43 0
-2 -44 0
-2 -45 0
-2 -47 0
-2 -48 0
-2 -49 0
-2 -50 0
-3 -11 0
-3 -12 0
-3 -13 0
-3 -15 0
-3 -16 0
-3 -17 0
-3 -18 0
-3 -19 0
-3 -20 0
-3 -41 0
-3 -42 0
-3 -43 0
-3 -44 0
-3 -45 0
-3 -46 0
-3 -48 0
-3 -49 0
-3 -50 0
-4 -12 0
-4 -13 0
-4 -14 0
-4 -15 0
-4 -16 0
-4 -17 0
-4 -18 0
-4 -19 0
-4 -20 0
-4 -41 0
-4 -42 0
-4 -43 0
-4 -44 0
-4 -45 0
-4 -46 0
-4 -47 0
-4 -49 0
-4 -50 0
-5 -11 0
-5 -12 0
-5 -13 0
-5 -14 0
-5 -15 0
-5 -17 0
-5 -18 0
-5 -20 0
-5 -41 0
-5 -42 0
-5 -44 0
-5 -45 0
-5 -46 0
-5 -47 0
-5 -48 0
-5 -50 0
-6 -11 0
-6 -12 0
-6 -13 0
-6 -14 0
-6 -15 0
-6 -16 0
-6 -18 0
-6 -19 0
-6 -20 0
-6 -41 0
-6 -42 0
-6 -43 0
-6 -45 0
-6 -46 0
-6 -47 0
-6 -48 0
-6 -49 0
-7 -11 0
-7 -12 0
-7 -13 0
-7 -14 0
-7 -15 0
-7 -16 0
-7 -17 0
-7 -19 0
-7 -20 0
-7 -42 0
-7 -43 0
-7 -44 0
-7 -45 0
-7 -46 0
-7 -47 0
-7 -48 0
-7 -49 0
-7 -50 0
-8 -11 0
-8 -13 0
-8 -14 0
-8 -16 0
-8 -17 0
-8 -18 0
-8 -19 0
-8 -20 0
-8 -41 0
-8 -43 0
-8 -44 0
-8 -46 0
-8 -47 0
-8 -48 0
-8 -49 0
-8 -50 0
-9 -11 0
-9 -12 0
-9 -13 0
-9 -14 0
-9 -15 0
-9 -16 0
-9 -17 0
-9 -18 0
-9 -19 0
-9 -41 0
-9 -42 0
-9 -43 0
-9 -45 0
-9 -46 0
-9 -47 0
-9 -48 0
-9 -49 0
-10 -12 0
-10 -13 0
-10 -14 0
-10 -15 0
-10 -16 0
-10 -17 0
-10 -18 0
-10 -19 0
-10 -20 0
-10 -42 0
-10 -43 0
-10 -44 0
-10 -45 0
-10 -46 0
-10 -47 0
-10 -48 0
-10 -49 0
-10 -50 0
-11 -21 0
-11 -23 0
-11 -24 0
-11 -26 0
-11 -27 0
-11 -28 0
-11 -29 0
-11 -30 0
-11 -51 0
-11 -53 0
-11 -54 0
-11 -56 0
-11 -57 0
-11 -58 0
-11 -59 0
-11 -60 0
-12 -21 0
-12 -22 0
-12 -24 0
-12 -25 0
-12 -26 0
-12 -27 0
-12 -28 0
-12 -29 0
-12 -30 0
-12 -51 0
-12 -52 0
-12 -53 0
-12 -54 0
-12 -55 0
-12 -57 0
-12 -58 0
-12 -59 0
-12 -60 0
-13 -21 0
-13 -22 0
-13 -23 0
-13 -25 0
-13 -26 0
-13 -27 0
-13 -28 0
-13 -29 0
-13 -30 0
-13 -51 0
-13 -52 0
-13 -53 0
-13 -54 0
-13 -55 0
-13 -56 0
-13 -58 0
-13 -59 0
-13 -60 0
-14 -22 0
-14 -23 0
-14 -24 0
-14 -25 0
-14 -26 0
-14 -27 0
-14 -28 0
-14 -29 0
-14 -30 0
-14 -51 0
-14 -52 0
-14 -53 0
-14 -54 0
-14 -55 0
-14 -56 0
-14 -57 0
-14 -59 0
-14 -60 0
-15 -21 0
-15 -22 0
-15 -23 0
-15 -24 0
-15 -25 0
-15 -27 0
-15 -28 0
-15 -30 0
-15 -51 0
-15 -52 0
-15 -54 0
-15 -55 0
-15 -56 0
-15 -57 0
-15 -58 0
-15 -60 0
-16 -21 0
-16 -22 0
-16 -23 0
-16 -24 0
-16 -25 0
-16 -26 0
-16 -28 0
-16 -29 0
-16 -30 0
-16 -51 0
-16 -52 0
-16 -53 0
-16 -55 0
-16 -56 0
-16 -57 0
-16 -58 0
-16 -59 0
-17 -21 0
-17 -22 0
-17 -23 0
-17 -24 0
-17 -25 0
-17 -26 0
-17 -27 0
-17 -29 0
-17 -30 0
-17 -52 0
-17 -53 0
-17 -54 0
-17 -55 0
-17 -56 0
-17 -57 0
-17 -58 0
-17 -59 0
-17 -60 0
-18 -21 0
-18 -23 0
-18 -24 0
-18 -26 0
-18 -27 0
-18 -28 0
-18 -29 0
-18 -30 0
-18 -51 0
-18 -53 0
-18 -54 0
-18 -56 0
-18 -57 0
-18 -58 0
-18 -59 0
-18 -60 0
-19 -21 0
-19 -22 0
-19 -23 0
-19 -24 0
-19 -25 0
-19 -26 0
-19 -27 0
-19 -28 0
-19 -29 0
-19 -51 0
-19 -52 0
-19 -53 0
-19 -55 0
-19 -56 0
-19 -57 0
-19 -58 0
-19 -59 0
-20 -22 0
-20 -23 0
-20 -24 0
-20 -25 0
-20 -26 0
-20 -27 0
-20 -28 0
-20 -29 0
-20 -30 0
-20 -52 0
-20 -53 0
-20 -54 0
-20 -55 0
-20 -56 0
-20 -57 0
-20 -58 0
-20 -59 0
-20 -60 0
-21 -31 0
-21 -33 0
-21 -34 0
-21 -36 0
-21 -37 0
-21 -38 0
-21 -39 0
-21 -40 0
-21 -61 0
-21 -63 0
-21 -64 0
-21 -66 0
-21 -67 0
-21 -68 0
-21 -69 0
-21 -70 0
-22 -31 0
-22 -32 0
-22 -34 0
-22 -35 0
-22 -36 0
-22 -37 0
-22 -38 0
-22 -39 0
-22 -40 0
-22 -61 0
-22 -62 0
-22 -63 0
-22 -64 0
-22 -65 0
-22 -67 0
-22 -68 0
-22 -69 0
-22 -70 0
-23 -31 0
-23 -32 0
-23 -33 0
-23 -35 0
-23 -36 0
-23 -37 0
-23 -38 0
-23 -39 0
-23 -40 0
-23 -61 0
-23 -62 0
-23 -63 0
-23 -64 0
-23 -65 0
-23 -66 0
-23 -68 0
-23 -69 0
-23 -70 0
-24 -32 0
-24 -33 0
-24 -34 0
-24 -35 0
-24 -36 0
-24 -37 0
-24 -38 0
-24 -39 0
-24 -40 0
-24 -61 0
-24 -62 0
-24 -63 0
-24 -64 0
-24 -65 0
-24 -66 0
-24 -67 0
-24 -69 0
-24 -70 0
-25 -31 0
-25 -32 0
-25 -33 0
-25 -34 0
-25 -35 0
-25 -37 0
-25 -38 0
-25 -40 0
-25 -61 0
-25 -62 0
-25 -64 0
-25 -65 0
-25 -66 0
-25 -67 0
-25 -68 0
-25 -70 0
-26 -31 0
-26 -32 0
-26 -33 0
-26 -34 0
-26 -35 0
-26 -36 0
-26 -38 0
-26 -39 0
-26 -40 0
-26 -61 0
-26 -62 0
-26 -63 0
-26 -65 0
-26 -66 0
-26 -67 0
-26 -68 0
-26 -69 0
-27 -31 0
-27 -32 0
-27 -33 0
-27 -34 0
-27 -35 0
-27 -36 0
-27 -37 0
-27 -39 0
-27 -40 0
-27 -62 0
-27 -63 0
-27 -64 0
-27 -65 0
-27 -66 0
-27 -67 0
-27 -68 0
-27 -69 0
-27 -70 0
-28 -31 0
-28 -33 0
-28 -34 0
-28 -36 0
-28 -37 0
-28 -38 0
-28 -39 0
-28 -40 0
-28 -61 0
-28 -63 0
-28 -64 0
-28 -66 0
-28 -67 0
-28 -68 0
-28 -69 0
-28 -70 0
-29 -31 0
-29 -32 0
-29 -33 0
-29 -34 0
-29 -35 0
-29 -36 0
-29 -37 0
-29 -38 0
-29 -39 0
-29 -61 0
-29 -62 0
-29 -63 0
-29 -65 0
-29 -66 0
-29 -67 0
-29 -68 0
-29 -69 0
-30 -32 0
-30 -33 0
-30 -34 0
-30 -35 0
-30 -36 0
-30 -37 0
-30 -38 0
-30 -39 0
-30 -40 0
-30 -62 0
-30 -63 0
-30 -64 0
-30 -65 0
-30 -66 0
-30 -67 0
-30 -68 0
-30 -69 0
-30 -70 0
-31 -71 0
-31 -73 0
-31 -74 0
-31 -76 0
-31 -77 0
-31 -78 0
-31 -79 0
-31 -80 0
-32 -71 0
-32 -72 0
-32 -73 0
-32 -74 0
-32 -75 0
-32 -77 0
-32 -78 0
-32 -79 0
-32 -80 0
-33 -71 0
-33 -72 0
-33 -73 0
-33 -74 0
-33 -75 0
-33 -76 0
-33 -78 0
-33 -79 0
-33 -80 0
-34 -71 0
-34 -72 0
-34 -73 0
-34 -74 0
-34 -75 0
-34 -76 0
-34 -77 0
-34 -79 0
-34 -80 0
-35 -71 0
-35 -72 0
-35 -74 0
-35 -75 0
-35 -76 0
-35 -77 0
-35 -78 0
-35 -80 0
-36 -71 0
-36 -72 0
-36 -73 0
-36 -75 0
-36 -76 0
-36 -77 0
-36 -78 0
-36 -79 0
-37 -72 0
-37 -73 0
-37 -74 0
-37 -75 0
-37 -76 0
-37 -77 0
-37 -78 0
-37 -79 0
-37 -80 0
-38 -71 0
-38 -73 0
-38 -74 0
-38 -76 0
-38 -77 0
-38 -78 0
-38 -79 0
-38 -80 0
-39 -71 0
-39 -72 0
-39 -73 0
-39 -75 0
-39 -76 0
-39 -77 0
-39 -78 0
-39 -79 0
-40 -72 0
-40 -73 0
-40 -74 0
-40 -75 0
-40 -76 0
-40 -77 0
-40 -78 0
-40 -79 0
-40 -80 0
-41 -51 0
-41 -53 0
-41 -54 0
-41 -56 0
-41 -57 0
-41 -58 0
-41 -59 0
-41 -60 0
-41 -81 0
-41 -83 0
-41 -84 0
-41 -86 0
-41 -87 0
-41 -88 0
-41 -89 0
-41 -90 0
-42 -51 0
-42 -52 0
-42 -54 0
-42 -55 0
-42 -56 0
-42 -57 0
-42 -58 0
-42 -59 0
-42 -60 0
-42 -81 0
-42 -82 0
-42 -83 0
-42 -84 0
-42 -85 0
-42 -87 0
-42 -88 0
-42 -89 0
-42 -90 0
-43 -51 0
-43 -52 0
-43 -53 0
-43 -55 0
-43 -56 0
-43 -57 0
-43 -58 0
-43 -59 0
-43 -60 0
-43 -81 0
-43 -82 0
-43 -83 0
-43 -84 0
-43 -85 0
-43 -86 0
-43 -88 0
-43 -89 0
-43 -90 0
-44 -52 0
-44 -53 0
-44 -54 0
-44 -55 0
-44 -56 0
-44 -57 0
-44 -58 0
-44 -59 0
-44 -60 0
-44 -81 0
-44 -82 0
-44 -83 0
-44 -84 0
-44 -85 0
-44 -86 0
-44 -87 0
-44 -89 0
-44 -90 0
-45 -51 0
-45 -52 0
-45 -53 0
-45 -54 0
-45 -55 0
-45 -57 0
-45 -58 0
-45 -60 0
-45 -81 0
-45 -82 0
-45 -84 0
-45 -85 0
-45 -86 0
-45 -87 0
-45 -88 0
-45 -90 0
-46 -51 0
-46 -52 0
-46 -53 0
-46 -54 0
-46 -55 0
-46 -56 0
-46 -58 0
-46 -59 0
-46 -60 0
-46 -81 0
-46 -82 0
-46 -83 0
-46 -85 0
-46 -86 0
-46 -87 0
-46 -88 0
-46 -89 0
-47 -51 0
-47 -52 0
-47 -53 0
-47 -54 0
-47 -55 0
-47 -56 0
-47 -57 0
-47 -59 0
-47 -60 0
-47 -82 0
-47 -83 0
-47 -84 0
-47 -85 0
-47 -86 0
-47 -87 0
-47 -88 0
-47 -89 0
-47 -90 0
-48 -51 0
-48 -53 0
-48 -54 0
-48 -56 0
-48 -57 0
-48 -58 0
-48 -59 0
-48 -60 0
-48 -81 0
-48 -83 0
-48 -84 0
-48 -86 0
-48 -87 0
-48 -88 0
-48 -89 0
-48 -90 0
-49 -51 0
-49 -52 0
-49 -53 0
-49 -54 0
-49 -55 0
-49 -56 0
-49 -57 0
-49 -58 0
-49 -59 0
-49 -81 0
-49 -82 0
-49 -83 0
-49 -85 0
-49 -86 0
-49 -87 0
-49 -88 0
-49 -89 0
-50 -52 0
-50 -53 0
-50 -54 0
-50 -55 0
-50 -56 0
-50 -57 0
-50 -58 0
-50 -59 0
-50 -60 0
-50 -82 0
-50 -83 0
-50 -84 0
-50 -85 0
-50 -86 0
-50 -87 0
-50 -88 0
-50 -89 0
-50 -90 0
-51 -61 0
-51 -63 0
-51 -64 0
-51 -66 0
-51 -67 0
-51 -68 0
-51 -69 0
-51 -70 0
-51 -91 0
-51 -93 0
-51 -94 0
-51 -96 0
-51 -97 0
-51 -98 0
-51 -99 0
-51 -100 0
-52 -61 0
-52 -62 0
-52 -64 0
-52 -65 0
-52 -66 0
-52 -67 0
-52 -68 0
-52 -69 0
-52 -70 0
-52 -91 0
-52 -92 0
-52 -93 0
-52 -94 0
-52 -95 0
-52 -97 0
-52 -98 0
-52 -99 0
-52 -100 0
-53 -61 0
-53 -62 0
-53 -63 0
-53 -65 0
-53 -66 0
-53 -67 0
-53 -68 0
-53 -69 0
-53 -70 0
-53 -91 0
-53 -92 0
-53 -93 0
-53 -94 0
-53 -95 0
-53 -96 0
-53 -98 0
-53 -99 0
-53 -100 0
-54 -62 0
-54 -63 0
-54 -64 0
-54 -65 0
-54 -66 0
-54 -67 0
-54 -68 0
-54 -69 0
-54 -70 0
-54 -91 0
-54 -92 0
-54 -93 0
-54 -94 0
-54 -95 0
-54 -96 0
-54 -97 0
-54 -99 0
-54 -100 0
-55 -61 0
-55 -62 0
-55 -63 0
-55 -64 0
-55 -65 0
-55 -67 0
-55 -68 0
-55 -70 0
-55 -91 0
-55 -92 0
-55 -94 0
-55 -95 0
-55 -96 0
-55 -97 0
-55 -98 0
-55 -100 0
-56 -61 0
-56 -62 0
-56 -63 0
-56 -64 0
-56 -65 0
-56 -66 0
-56 -68 0
-56 -69 0
-56 -70 0
-56 -91 0
-56 -92 0
-56 -93 0
-56 -95 0
-56 -96 0
-56 -97 0
-56 -98 0
-56 -99 0
-57 -61 0
-57 -62 0
-57 -63 0
-57 -64 0
-57 -65 0
-57 -66 0
-57 -67 0
-57 -69 0
-57 -70 0
-57 -92 0
-57 -93 0
-57 -94 0
-57 -95 0
-57 -96 0
-57 -97 0
-57 -98 0
-57 -99 0
-57 -100 0
-58 -61 0
-58 -63 0
-58 -64 0
-58 -66 0
-58 -67 0
-58 -68 0
-58 -69 0
-58 -70 0
-58 -91 0
-58 -93 0
-58 -94 0
-58 -96 0
-58 -97 0
-58 -98 0
-58 -99 0
-58 -100 0
-59 -61 0
-59 -62 0
-59 -63 0
-59 -64 0
-59 -65 0
-59 -66 0
-59 -67 0
-59 -68 0
-59 -69 0
-59 -91 0
-59 -92 0
-59 -93 0
-59 -95 0
-59 -96 0
-59 -97 0
-59 -98 0
-59 -99 0
-60 -62 0
-60 -63 0
-60 -64 0
-60 -65 0
-60 -66 0
-60 -67 0
-60 -68 0
-60 -69 0
-60 -70 0
-60 -92 0
-60 -93 0
-60 -94 0
-60 -95 0
-60 -96 0
-60 -97 0
-60 -98 0
-60 -99 0
-60 -100 0
-61 -71 0
-61 -73 0
-61 -74 0
-61 -76 0
-61 -77 0
-61 -78 0
-61 -79 0
-61 -80 0
-61 -101 0
-61 -103 0
-61 -104 0
-61 -106 0
-61 -107 0
-61 -108 0
-61 -109 0
-61 -110 0
-62 -71 0
-62 -72 0
-62 -74 0
-62 -75 0
-62 -76 0
-62 -77 0
-62 -78 0
-62 -79 0
-62 -80 0
-62 -101 0
-62 -102 0
-62 -103 0
-62 -104 0
-62 -105 0
-62 -107 0
-62 -108 0
-62 -109 0
-62 -110 0
-63 -71 0
-63 -72 0
-63 -73 0
-63 -75 0
-63 -76 0
-63 -77 0
-63 -78 0
-63 -79 0
-63 -80 0
-63 -101 0
-63 -102 0
-63 -103 0
-63 -104 0
-63 -105 0
-63 -106 0
-63 -108 0
-63 -109 0
-63 -110 0
-64 -72 0
-64 -73 0
-64 -74 0
-64 -75 0
-64 -76 0
-64 -77 0
-64 -78 0
-64 -79 0
-64 -80 0
-64 -101 0
-64 -102 0
-64 -103 0
-64 -104 0
-64 -105 0
-64 -106 0
-64 -107 0
-64 -109 0
-64 -110 0
-65 -71 0
-65 -72 0
-65 -73 0
-65 -74 0
-65 -75 0
-65 -77 0
-65 -78 0
-65 -80 0
-65 -101 0
-65 -102 0
-65 -104 0
-65 -105 0
-65 -106 0
-65 -107 0
-65 -108 0
-65 -110 0
-66 -71 0
-66 -72 0
-66 -73 0
-66 -74 0
-66 -75 0
-66 -76 0
-66 -78 0
-66 -79 0
-66 -80 0
-66 -101 0
-66 -102 0
-66 -103 0
-66 -105 0
-66 -106 0
-66 -107 0
-66 -108 0
-66 -109 0
-67 -71 0
-67 -72 0
-67 -73 0
-67 -74 0
-67 -75 0
-67 -76 0
-67 -77 0
-67 -79 0
-67 -80 0
-67 -102 0
-67 -103 0
-67 -104 0
-67 -105 0
-67 -106 0
-67 -107 0
-67 -108 0
-67 -109 0
-67 -110 0
-68 -71 0
-68 -73 0
-68 -74 0
-68 -76 0
-68 -77 0
-68 -78 0
-68 -79 0
-68 -80 0
-68 -101 0
-68 -103 0
-68 -104 0
-68 -106 0
-68 -107 0
-68 -108 0
-68 -109 0
-68 -110 0
-69 -71 0
-69 -72 0
-69 -73 0
-69 -74 0
-69 -75 0
-69 -76 0
-69 -77 0
-69 -78 0
-69 -79 0
-69 -101 0
-69 -102 0
-69 -103 0
-69 -105 0
-69 -106 0
-69 -107 0
-69 -108 0
-69 -109 0
-70 -72 0
-70 -73 0
-70 -74 0
-70 -75 0
-70 -76 0
-70 -77 0
-70 -78 0
-70 -79 0
-70 -80 0
-70 -102 0
-70 -103 0
-70 -104 0
-70 -105 0
-70 -106 0
-70 -107 0
-70 -108 0
-70 -109 0
-70 -110 0
-71 -111 0
-71 -113 0
-71 -114 0
-71 -116 0
-71 -117 0
-71 -118 0
-71 -119 0
-71 -120 0
-72 -111 0
-72 -112 0
-72 -113 0
-72 -114 0
-72 -115 0
-72 -117 0
-72 -118 0
-72 -119 0
-72 -120 0
-73 -111 0
-73 -112 0
-73 -113 0
-73 -114 0
-73 -115 0
-73 -116 0
-73 -118 0
-73 -119 0
-73 -120 0
-74 -111 0
-74 -112 0
-74 -113 0
-74 -114 0
-74 -115 0
-74 -116 0
-74 -117 0
-74 -119 0
-74 -120 0
-75 -111 0
-75 -112 0
-75 -114 0
-75 -115 0
-75 -116 0
-75 -117 0
-75 -118 0
-75 -120 0
-76 -111 0
-76 -112 0
-76 -113 0
-76 -115 0
-76 -116 0
-76 -117 0
-76 -118 0
-76 -119 0
-77 -112 0
-77 -113 0
-77 -114 0
-77 -115 0
-77 -116 0
-77 -117 0
-77 -118 0
-77 -119 0
-77 -120 0
-78 -111 0
-78 -113 0
-78 -114 0
-78 -116 0
-78 -117 0
-78 -118 0
-78 -119 0
-78 -120 0
-79 -111 0
-79 -112 0
-79 -113 0
-79 -115 0
-79 -116 0
-79 -117 0
-79 -118 0
-79 -119 0
-80 -112 0
-80 -113 0
-80 -114 0
-80 -115 0
-80 -116 0
-80 -117 0
-80 -118 0
-80 -119 0
-80 -120 0
-81 -91 0
-81 -93 0
-81 -94 0
-81 -96 0
-81 -97 0
-81 -98 0
-81 -99 0
-81 -100 0
-81 -121 0
-81 -123 0
-81 -124 0
-81 -126 0
-81 -127 0
-81 -128 0
-81 -129 0
-81 -130 0
-82 -91 0
-82 -92 0
-82 -94 0
-82 -95 0
-82 -96 0
-82 -97 0
-82 -98 0
-82 -99 0
-82 -100 0
-82 -121 0
-82 -122 0
-82 -123 0
-82 -124 0
-82 -125 0
-82 -127 0
-82 -128 0
-82 -129 0
-82 -130 0
-83 -91 0
-83 -92 0
-83 -93 0
-83 -95 0
-83 -96 0
-83 -97 0
-83 -98 0
-83 -99 0
-83 -100 0
-83 -121 0
-83 -122 0
-83 -123 0
-83 -124 0
-83 -125 0
-83 -126 0
-83 -128 0
-83 -129 0
-83 -130 0
-84 -92 0
-84 -93 0
-84 -94 0
-84 -95 0
-84 -96 0
-84 -97 0
-84 -98 0
-84 -99 0
-84 -100 0
-84 -121 0
-84 -122 0
-84 -123 0
-84 -124 0
-84 -125 0
-84 -126 0
-84 -127 0
-84 -129 0
-84 -130 0
-85 -91 0
-85 -92 0
-85 -93 0
-85 -94 0
-85 -95 0
-85 -97 0
-85 -98 0
-85 -100 0
-85 -121 0
-85 -122 0
-85 -124 0
-85 -125 0
-85 -126 0
-85 -127 0
-85 -128 0
-85 -130 0
-86 -91 0
-86 -92 0
-86 -93 0
-86 -94 0
-86 -95 0
-86 -96 0
-86 -98 0
-86 -99 0
-86 -100 0
-86 -121 0
-86 -122 0
-86 -123 0
-86 -125 0
-86 -126 0
-86 -127 0
-86 -128 0
-86 -129 0
-87 -91 0
-87 -92 0
-87 -93 0
-87 -94 0
-87 -95 0
-87 -96 0
-87 -97 0
-87 -99 0
-87 -100 0
-87 -122 0
-87 -123 0
-87 -124 0
-87 -125 0
-87 -126 0
-87 -127 0
-87 -128 0
-87 -129 0
-87 -130 0
-88 -91 0
-88 -93 0
-88 -94 0
-88 -96 0
-88 -97 0
-88 -98 0
-88 -99 0
-88 -100 0
-88 -121 0
-88 -123 0
-88 -124 0
-88 -126 0
-88 -127 0
-88 -128 0
-88 -129 0
-88 -130 0
-89 -91 0
-89 -92 0
-89 -93 0
-89 -94 0
-89 -95 0
-89 -96 0
-89 -97 0
-89 -98 0
-89 -99 0
-89 -121 0
-89 -122 0
-89 -123 0
-89 -125 0
-89 -126 0
-89 -127 0
-89 -128 0
-89 -129 0
-90 -92 0
-90 -93 0
-90 -94 0
-90 -95 0
-90 -96 0
-90 -97 0
-90 -98 0
-90 -99 0
-90 -100 0
-90 -122 0
-90 -123 0
-90 -124 0
-90 -125 0
-90 -126 0
-90 -127 0
-90 -128 0
-90 -129 0
-90 -130 0
-91 -101 0
-91 -103 0
-91 -104 0
-91 -106 0
-91 -107 0
-91 -108 0
-91 -109 0
-91 -110 0
-91 -131 0
-91 -133 0
-91 -134 0
-91 -136 0
-91 -137 0
-91 -138 0
-91 -139 0
-91 -140 0
-92 -101 0
-92 -102 0
-92 -104 0
-92 -105 0
-92 -106 0
-92 -107 0
-92 -108 0
-92 -109 0
-92 -110 0
-92 -131 0
-92 -132 0
-92 -133 0
-92 -134 0
-92 -135 0
-92 -137 0
-92 -138 0
-92 -139 0
-92 -140 0
-93 -101 0
-93 -102 0
-93 -103 0
-93 -105 0
-93 -106 0
-93 -107 0
-93 -108 0
-93 -109 0
-93 -110 0
-93 -131 0
-93 -132 0
-93 -133 0
-93 -134 0
-93 -135 0
-93 -136 0
-93 -138 0
-93 -139 0
-93 -140 0
-94 -102 0
-94 -103 0
-94 -104 0
-94 -105 0
-94 -106 0
-94 -107 0
-94 -108 0
-94 -109 0
-94 -110 0
-94 -131 0
-94 -132 0
-94 -133 0
-94 -134 0
-94 -135 0
-94 -136 0
-94 -137 0
-94 -139 0
-94 -140 0
-95 -101 0
-95 -102 0
-95 -103 0
-95 -104 0
-95 -105 0
-95 -107 0
-95 -108 0
-95 -110 0
-95 -131 0
-95 -132 0
-95 -134 0
-95 -135 0
-95 -136 0
-95 -137 0
-95 -138 0
-95 -140 0
-96 -101 0
-96 -102 0
-96 -103 0
-96 -104 0
-96 -105 0
-96 -106 0
-96 -108 0
-96 -109 0
-96 -110 0
-96 -131 0
-96 -132 0
-96 -133 0
-96 -135 0
-96 -136 0
-96 -137 0
-96 -138 0
-96 -139 0
-97 -101 0
-97 -102 0
-97 -103 0
-97 -104 0
-97 -105 0
-97 -106 0
-97 -107 0
-97 -109 0
-97 -110 0
-97 -132 0
-97 -133 0
-97 -134 0
-97 -135 0
-97 -136 0
-97 -137 0
-97 -138 0
-97 -139 0
-97 -140 0
-98 -101 0
-98 -103 0
-98 -104 0
-98 -106 0
-98 -107 0
-98 -108 0
-98 -109 0
-98 -110 0
-98 -131 0
-98 -133 0
-98 -134 0
-98 -136 0
-98 -137 0
-98 -138 0
-98 -139 0
-98 -140 0
-99 -101 0
-99 -102 0
-99 -103 0
-99 -104 0
-99 -105 0
-99 -106 0
-99 -107 0
-99 -108 0
-99 -109 0
-99 -131 0
-99 -132 0
-99 -133 0
-99 -135 0
-99 -136 0
-99 -137 0
-99 -138 0
-99 -139 0
-100 -102 0
-100 -103 0
-100 -104 0
-100 -105 0
-100 -106 0
-100 -107 0
-100 -108 0
-100 -109 0
-100 -110 0
-100 -132 0
-100 -133 0
-100 -134 0
-100 -135 0
-100 -136 0
-100 -137 0
-100 -138 0
-100 -139 0
-100 -140 0
-101 -111 0
-101 -113 0
-101 -114 0
-101 -116 0
-101 -117 0
-101 -118 0
-101 -119 0
-101 -120 0
-101 -141 0
-101 -143 0
-101 -144 0
-101 -146 0
-101 -147 0
-101 -148 0
-101 -149 0
-101 -150 0
-102 -111 0
-102 -112 0
-102 -114 0
-102 -115 0
-102 -116 0
-102 -117 0
-102 -118 0
-102 -119 0
-102 -120 0
-102 -141 0
-102 -142 0
-102 -143 0
-102 -144 0
-102 -145 0
-102 -147 0
-102 -148 0
-102 -149 0
-102 -150 0
-103 -111 0
-103 -112 0
-103 -113 0
-103 -115 0
-103 -116 0
-103 -117 0
-103 -118 0
-103 -119 0
-103 -120 0
-103 -141 0
-103 -142 0
-103 -143 0
-103 -144 0
-103 -145 0
-103 -146 0
-103 -148 0
-103 -149 0
-103 -150 0
-104 -112 0
-104 -113 0
-104 -114 0
-104 -115 0
-104 -116 0
-104 -117 0
-104 -118 0
-104 -119 0
-104 -120 0
-104 -141 0
-104 -142 0
-104 -143 0
-104 -144 0
-104 -145 0
-104 -146 0
-104 -147 0
-104 -149 0
-104 -150 0
-105 -111 0
-105 -112 0
-105 -113 0
-105 -114 0
-105 -115 0
-105 -117 0
-105 -118 0
-105 -120 0
-105 -141 0
-105 -142 0
-105 -144 0
-105 -145 0
-105 -146 0
-105 -147 0
-105 -148 0
-105 -150 0
-106 -111 0
-106 -112 0
-106 -113 0
-106 -114 0
-106 -115 0
-106 -116 0
-106 -118 0
-106 -119 0
-106 -120 0
-106 -141 0
-106 -142 0
-106 -143 0
-106 -145 0
-106 -146 0
-106 -147 0
-106 -148 0
-106 -149 0
-107 -111 0
-107 -112 0
-107 -113 0
-107 -114 0
-107 -115 0
-107 -116 0
-107 -117 0
-107 -119 0
-107 -120 0
-107 -142 0
-107 -143 0
-107 -144 0
-107 -145 0
-107 -146 0
-107 -147 0
-107 -148 0
-107 -149 0
-107 -150 0
-108 -111 0
-108 -113 0
-108 -114 0
-108 -116 0
-108 -117 0
-108 -118 0
-108 -119 0
-108 -120 0
-108 -141 0
-108 -143 0
-108 -144 0
-108 -146 0
-108 -147 0
-108 -148 0
-108 -149 0
-108 -150 0
-109 -111 0
-109 -112 0
-109 -113 0
-109 -114 0
-109 -115 0
-109 -116 0
-109 -117 0
-109 -118 0
-109 -119 0
-109 -141 0
-109 -142 0
-109 -143 0
-109 -145 0
-109 -146 0
-109 -147 0
-109 -148 0
-109 -149 0
-110 -112 0
-110 -113 0
-110 -114 0
-110 -115 0
-110 -116 0
-110 -117 0
-110 -118 0
-110 -119 0
-110 -120 0
-110 -142 0
-110 -143 0
-110 -144 0
-110 -145 0
-110 -146 0
-110 -147 0
-110 -148 0
-110 -149 0
-110 -150 0
-111 -151 0
-111 -153 0
-111 -154 0
-111 -156 0
-111 -157 0
-111 -158 0
-111 -159 0
-111 -160 0
-112 -151 0
-112 -152 0
-112 -153 0
-112 -154 0
-112 -155 0
-112 -157 0
-112 -158 0
-112 -159 0
-112 -160 0
-113 -151 0
-113 -152 0
-113 -153 0
-113 -154 0
-113 -155 0
-113 -156 0
-113 -158 0
-113 -159 0
-113 -160 0
-114 -151 0
-114 -152 0
-114 -153 0
-114 -154 0
-114 -155 0
-114 -156 0
-114 -157 0
-114 -159 0
-114 -160 0
-115 -151 0
-115 -152 0
-115 -154 0
-115 -155 0
-115 -156 0
-115 -157 0
-115 -158 0
-115 -160 0
-116 -151 0
-116 -152 0
-116 -153 0
-116 -155 0
-116 -156 0
-116 -157 0
-116 -158 0
-116 -159 0
-117 -152 0
-117 -153 0
-117 -154 0
-117 -155 0
-117 -156 0
-117 -157 0
-117 -158 0
-117 -159 0
-117 -160 0
-118 -151 0
-118 -153 0
-118 -154 0
-118 -156 0
-118 -157 0
-118 -158 0
-118 -159 0
-118 -160 0
-119 -151 0
-119 -152 0
-119 -153 0
-119 -155 0
-119 -156 0
-119 -157 0
-119 -158 0
-119 -159 0
-120 -152 0
-120 -153 0
-120 -154 0
-120 -155 0
-120 -156 0
-120 -157 0
-120 -158 0
-120 -159 0
-120 -160 0
-121 -131 0
-121 -133 0
-121 -134 0
-121 -136 0
-121 -137 0
-121 -138 0
-121 -139 0
-121 -140 0
-122 -131 0
-122 -132 0
-122 -134 0
-122 -135 0
-122 -136 0
-122 -137 0
-122 -138 0
-122 -139 0
-122 -140 0
-123 -131 0
-123 -132 0
-123 -133 0
-123 -135 0
-123 -136 0
-123 -137 0
-123 -138 0
-123 -139 0
-123 -140 0
-124 -132 0
-124 -133 0
-124 -134 0
-124 -135 0
-124 -136 0
-124 -137 0
-124 -138 0
-124 -139 0
-124 -140 0
-125 -131 0
-125 -132 0
-125 -133 0
-125 -134 0
-125 -135 0
-125 -137 0
-125 -138 0
-125 -140 0
-126 -131 0
-126 -132 0
-126 -133 0
-126 -134 0
-126 -135 0
-126 -136 0
-126 -138 0
-126 -139 0
-126 -140 0
-127 -131 0
-127 -132 0
-127 -133 0
-127 -134 0
-127 -135 0
-127 -136 0
-127 -137 0
-127 -139 0
-127 -140 0
-128 -131 0
-128 -133 0
-128 -134 0
-128 -136 0
-128 -137 0
-128 -138 0
-128 -139 0
-128 -140 0
-129 -131 0
-129 -132 0
-129 -133 0
-129 -134 0
-129 -135 0
-129 -136 0
-129 -137 0
-129 -138 0
-129 -139 0
-130 -132 0
-130 -133 0
-130 -134 0
-130 -135 0
-130 -136 0
-130 -137 0
-130 -138 0
-130 -139 0
-130 -140 0
-131 -141 0
-131 -143 0
-131 -144 0
-131 -146 0
-131 -147 0
-131 -148 0
-131 -149 0
-131 -150 0
-132 -141 0
-132 -142 0
-132 -144 0
-132 -145 0
-132 -146 0
-132 -147 0
-132 -148 0
-132 -149 0
-132 -150 0
-133 -141 0
-133 -142 0
-133 -143 0
-133 -145 0
-133 -146 0
-133 -147 0
-133 -148 0
-133 -149 0
-133 -150 0
-134 -142 0
-134 -143 0
-134 -144 0
-134 -145 0
-134 -146 0
-134 -147 0
-134 -148 0
-134 -149 0
-134 -150 0
-135 -141 0
-135 -142 0
-135 -143 0
-135 -144 0
-135 -145 0
-135 -147 0
-135 -148 0
-135 -150 0
-136 -141 0
-136 -142 0
-136 -143 0
-136 -144 0
-136 -145 0
-136 -146 0
-136 -148 0
-136 -149 0
-136 -150 0
-137 -141 0
-137 -142 0
-137 -143 0
-137 -144 0
-137 -145 0
-137 -146 0
-137 -147 0
-137 -149 0
-137 -150 0
-138 -141 0
-138 -143 0
-138 -144 0
-138 -146 0
-138 -147 0
-138 -148 0
-138 -149 0
-138 -150 0
-139 -141 0
-139 -142 0
-139 -143 0
-139 -144 0
-139 -145 0
-139 -146 0
-139 -147 0
-139 -148 0
-139 -149 0
-140 -142 0
-140 -143 0
-140 -144 0
-140 -145 0
-140 -146 0
-140 -147 0
-140 -148 0
-140 -149 0
-140 -150 0
-141 -151 0
-141 -153 0
-141 -154 0
-141 -156 0
-141 -157 0
-141 -158 0
-141 -159 0
-141 -160 0
-142 -151 0
-142 -152 0
-142 -154 0
-142 -155 0
-142 -156 0
-142 -157 0
-142 -158 0
-142 -159 0
-142 -160 0
-143 -151 0
-143 -152 0
-143 -153 0
-143 -155 0
-143 -156 0
-143 -157 0
-143 -158 0
-143 -159 0
-143 -160 0
-144 -152 0
-144 -153 0
-144 -154 0
-144 -155 0
-144 -156 0
-144 -157 0
-144 -158 0
-144 -159 0
-144 -160 0
-145 -151 0
-145 -152 0
-145 -153 0
-145 -154 0
-145 -155 0
-145 -157 0
-145 -158 0
-145 -160 0
-146 -151 0
-146 -152 0
-146 -153 0
-146 -154 0
-146 -155 0
-146 -156 0
-146 -158 0
-146 -159 0
-146 -160 0
-147 -151 0
-147 -152 0
-147 -153 0
-147 -154 0
-147 -155 0
-147 -156 0
-147 -157 0
-147 -159 0
-147 -160 0
-148 -151 0
-148 -153 0
-148 -154 0
-148 -156 0
-148 -157 0
-148 -158 0
-148 -159 0
-148 -160 0
-149 -151 0
-149 -152 0
-149 -153 0
-149 -154 0
-149 -155 0
-149 -156 0
-149 -157 0
-149 -158 0
-149 -159 0
-150 -152 0
-150 -153 0
-150 -154 0
-150 -155 0
-150 -156 0
-150 -157 0
-150 -158 0
-150 -159 0
-150 -160 0
