p cnf 2560 53056
1 2 3 4 5 6 7 8 9 10 0
-1 -2 0
-1 -3 0
-1 -4 0
-1 -5 0
-1 -6 0
-1 -7 0
-1 -8 0
-1 -9 0
-1 -10 0
-2 -3 0
-2 -4 0
-2 -5 0
-2 -6 0
-2 -7 0
-2 -8 0
-2 -9 0
-2 -10 0
-3 -4 0
-3 -5 0
-3 -6 0
-3 -7 0
-3 -8 0
-3 -9 0
-3 -10 0
-4 -5 0
-4 -6 0
-4 -7 0
-4 -8 0
-4 -9 0
-4 -10 0
-5 -6 0
-5 -7 0
-5 -8 0
-5 -9 0
-5 -10 0
-6 -7 0
-6 -8 0
-6 -9 0
-6 -10 0
-7 -8 0
-7 -9 0
-7 -10 0
-8 -9 0
-8 -10 0
-9 -10 0
11 12 13 14 15 16 17 18 19 20 0
-11 -12 0
-11 -13 0
-11 -14 0
-11 -15 0
-11 -16 0
-11 -17 0
-11 -18 0
-11 -19 0
-11 -20 0
-12 -13 0
-12 -14 0
-12 -15 0
-12 -16 0
-12 -17 0
-12 -18 0
-12 -19 0
-12 -20 0
-13 -14 0
-13 -15 0
-13 -16 0
-13 -17 0
-13 -18 0
-13 -19 0
-13 -20 0
-14 -15 0
-14 -16 0
-14 -17 0
-14 -18 0
-14 -19 0
-14 -20 0
-15 -16 0
-15 -17 0
-15 -18 0
-15 -19 0
-15 -20 0
-16 -17 0
-16 -18 0
-16 -19 0
-16 -20 0
-17 -18 0
-17 -19 0
-17 -20 0
-18 -19 0
-18 -20 0
-19 -20 0
21 22 23 24 25 26 27 28 29 30 0
-21 -22 0
-21 -23 0
-21 -24 0
-21 -25 0
-21 -26 0
-21 -27 0
-21 -28 0
-21 -29 0
-21 -30 0
-22 -23 0
-22 -24 0
-22 -25 0
-22 -26 0
-22 -27 0
-22 -28 0
-22 -29 0
-22 -30 0
-23 -24 0
-23 -25 0
-23 -26 0
-23 -27 0
-23 -28 0
-23 -29 0
-23 -30 0
-24 -25 0
-24 -26 0
-24 -27 0
-24 -28 0
-24 -29 0
-24 -30 0
-25 -26 0
-25 -27 0
-25 -28 0
-25 -29 0
-25 -30 0
-26 -27 0
-26 -28 0
-26 -29 0
-26 -30 0
-27 -28 0
-27 -29 0
-27 -30 0
-28 -29 0
-28 -30 0
-29 -30 0
31 32 33 34 35 36 37 38 39 40 0
-31 -32 0
-31 -33 0
-31 -34 0
-31 -35 0
-31 -36 0
-31 -37 0
-31 -38 0
-31 -39 0
-31 -40 0
-32 -33 0
-32 -34 0
-32 -35 0
-32 -36 0
-32 -37 0
-32 -38 0
-32 -39 0
-32 -40 0
-33 -34 0
-33 -35 0
-33 -36 0
-33 -37 0
-33 -38 0
-33 -39 0
-33 -40 0
-34 -35 0
-34 -36 0
-34 -37 0
-34 -38 0
-34 -39 0
-34 -40 0
-35 -36 0
-35 -37 0
-35 -38 0
-35 -39 0
-35 -40 0
-36 -37 0
-36 -38 0
-36 -39 0
-36 -40 0
-37 -38 0
-37 -39 0
-37 -40 0
-38 -39 0
-38 -40 0
-39 -40 0
41 42 43 44 45 46 47 48 49 50 0
-41 -42 0
-41 -43 0
-41 -44 0
-41 -45 0
-41 -46 0
-41 -47 0
-41 -48 0
-41 -49 0
-41 -50 0
-42 -43 0
-42 -44 0
-42 -45 0
-42 -46 0
-42 -47 0
-42 -48 0
-42 -49 0
-42 -50 0
-43 -44 0
-43 -45 0
-43 -46 0
-43 -47 0
-43 -48 0
-43 -49 0
-43 -50 0
-44 -45 0
-44 -46 0
-44 -47 0
-44 -48 0
-44 -49 0
-44 -50 0
-45 -46 0
-45 -47 0
-45 -48 0
-45 -49 0
-45 -50 0
-46 -47 0
-46 -48 0
-46 -49 0
-46 -50 0
-47 -48 0
-47 -49 0
-47 -50 0
-48 -49 0
-48 -50 0
-49 -50 0
51 52 53 54 55 56 57 58 59 60 0
-51 -52 0
-51 -53 0
-51 -54 0
-51 -55 0
-51 -56 0
-51 -57 0
-51 -58 0
-51 -59 0
-51 -60 0
-52 -53 0
-52 -54 0
-52 -55 0
-52 -56 0
-52 -57 0
-52 -58 0
-52 -59 0
-52 -60 0
-53 -54 0
-53 -55 0
-53 -56 0
-53 -57 0
-53 -58 0
-53 -59 0
-53 -60 0
-54 -55 0
-54 -56 0
-54 -57 0
-54 -58 0
-54 -59 0
-54 -60 0
-55 -56 0
-55 -57 0
-55 -58 0
-55 -59 0
-55 -60 0
-56 -57 0
-56 -58 0
-56 -59 0
-56 -60 0
-57 -58 0
-57 -59 0
-57 -60 0
-58 -59 0
-58 -60 0
-59 -60 0
61 62 63 64 65 66 67 68 69 70 0
-61 -62 0
-61 -63 0
-61 -64 0
-61 -65 0
-61 -66 0
-61 -67 0
-61 -68 0
-61 -69 0
-61 -70 0
-62 -63 0
-62 -64 0
-62 -65 0
-62 -66 0
-62 -67 0
-62 -68 0
-62 -69 0
-62 -70 0
-63 -64 0
-63 -65 0
-63 -66 0
-63 -67 0
-63 -68 0
-63 -69 0
-63 -70 0
-64 -65 0
-64 -66 0
-64 -67 0
-64 -68 0
-64 -69 0
-64 -70 0
-65 -66 0
-65 -67 0
-65 -68 0
-65 -69 0
-65 -70 0
-66 -67 0
-66 -68 0
-66 -69 0
-66 -70 0
-67 -68 0
-67 -69 0
-67 -70 0
-68 -69 0
-68 -70 0
-69 -70 0
71 72 73 74 75 76 77 78 79 80 0
-71 -72 0
-71 -73 0
-71 -74 0
-71 -75 0
-71 -76 0
-71 -77 0
-71 -78 0
-71 -79 0
-71 -80 0
-72 -73 0
-72 -74 0
-72 -75 0
-72 -76 0
-72 -77 0
-72 -78 0
-72 -79 0
-72 -80 0
-73 -74 0
-73 -75 0
-73 -76 0
-73 -77 0
-73 -78 0
-73 -79 0
-73 -80 0
-74 -75 0
-74 -76 0
-74 -77 0
-74 -78 0
-74 -79 0
-74 -80 0
-75 -76 0
-75 -77 0
-75 -78 0
-75 -79 0
-75 -80 0
-76 -77 0
-76 -78 0
-76 -79 0
-76 -80 0
-77 -78 0
-77 -79 0
-77 -80 0
-78 -79 0
-78 -80 0
-79 -80 0
81 82 83 84 85 86 87 88 89 90 0
-81 -82 0
-81 -83 0
-81 -84 0
-81 -85 0
-81 -86 0
-81 -87 0
-81 -88 0
-81 -89 0
-81 -90 0
-82 -83 0
-82 -84 0
-82 -85 0
-82 -86 0
-82 -87 0
-82 -88 0
-82 -89 0
-82 -90 0
-83 -84 0
-83 -85 0
-83 -86 0
-83 -87 0
-83 -88 0
-83 -89 0
-83 -90 0
-84 -85 0
-84 -86 0
-84 -87 0
-84 -88 0
-84 -89 0
-84 -90 0
-85 -86 0
-85 -87 0
-85 -88 0
-85 -89 0
-85 -90 0
-86 -87 0
-86 -88 0
-86 -89 0
-86 -90 0
-87 -88 0
-87 -89 0
-87 -90 0
-88 -89 0
-88 -90 0
-89 -90 0
91 92 93 94 95 96 97 98 99 100 0
-91 -92 0
-91 -93 0
-91 -94 0
-91 -95 0
-91 -96 0
-91 -97 0
-91 -98 0
-91 -99 0
-91 -100 0
-92 -93 0
-92 -94 0
-92 -95 0
-92 -96 0
-92 -97 0
-92 -98 0
-92 -99 0
-92 -100 0
-93 -94 0
-93 -95 0
-93 -96 0
-93 -97 0
-93 -98 0
-93 -99 0
-93 -100 0
-94 -95 0
-94 -96 0
-94 -97 0
-94 -98 0
-94 -99 0
-94 -100 0
-95 -96 0
-95 -97 0
-95 -98 0
-95 -99 0
-95 -100 0
-96 -97 0
-96 -98 0
-96 -99 0
-96 -100 0
-97 -98 0
-97 -99 0
-97 -100 0
-98 -99 0
-98 -100 0
-99 -100 0
101 102 103 104 105 106 107 108 109 110 0
-101 -102 0
-101 -103 0
-101 -104 0
-101 -105 0
-101 -106 0
-101 -107 0
-101 -108 0
-101 -109 0
-101 -110 0
-102 -103 0
-102 -104 0
-102 -105 0
-102 -106 0
-102 -107 0
-102 -108 0
-102 -109 0
-102 -110 0
-103 -104 0
-103 -105 0
-103 -106 0
-103 -107 0
-103 -108 0
-103 -109 0
-103 -110 0
-104 -105 0
-104 -106 0
-104 -107 0
-104 -108 0
-104 -109 0
-104 -110 0
-105 -106 0
-105 -107 0
-105 -108 0
-105 -109 0
-105 -110 0
-106 -107 0
-106 -108 0
-106 -109 0
-106 -110 0
-107 -108 0
-107 -109 0
-107 -110 0
-108 -109 0
-108 -110 0
-109 -110 0
111 112 113 114 115 116 117 118 119 120 0
-111 -112 0
-111 -113 0
-111 -114 0
-111 -115 0
-111 -116 0
-111 -117 0
-111 -118 0
-111 -119 0
-111 -120 0
-112 -113 0
-112 -114 0
-112 -115 0
-112 -116 0
-112 -117 0
-112 -118 0
-112 -119 0
-112 -120 0
-113 -114 0
-113 -115 0
-113 -116 0
-113 -117 0
-113 -118 0
-113 -119 0
-113 -120 0
-114 -115 0
-114 -116 0
-114 -117 0
-114 -118 0
-114 -119 0
-114 -120 0
-115 -116 0
-115 -117 0
-115 -118 0
-115 -119 0
-115 -120 0
-116 -117 0
-116 -118 0
-116 -119 0
-116 -120 0
-117 -118 0
-117 -119 0
-117 -120 0
-118 -119 0
-118 -120 0
-119 -120 0
121 122 123 124 125 126 127 128 129 130 0
-121 -122 0
-121 -123 0
-121 -124 0
-121 -125 0
-121 -126 0
-121 -127 0
-121 -128 0
-121 -129 0
-121 -130 0
-122 -123 0
-122 -124 0
-122 -125 0
-122 -126 0
-122 -127 0
-122 -128 0
-122 -129 0
-122 -130 0
-123 -124 0
-123 -125 0
-123 -126 0
-123 -127 0
-123 -128 0
-123 -129 0
-123 -130 0
-124 -125 0
-124 -126 0
-124 -127 0
-124 -128 0
-124 -129 0
-124 -130 0
-125 -126 0
-125 -127 0
-125 -128 0
-125 -129 0
-125 -130 0
-126 -127 0
-126 -128 0
-126 -129 0
-126 -130 0
-127 -128 0
-127 -129 0
-127 -130 0
-128 -129 0
-128 -130 0
-129 -130 0
131 132 133 134 135 136 137 138 139 140 0
-131 -132 0
-131 -133 0
-131 -134 0
-131 -135 0
-131 -136 0
-131 -137 0
-131 -138 0
-131 -139 0
-131 -140 0
-132 -133 0
-132 -134 0
-132 -135 0
-132 -136 0
-132 -137 0
-132 -138 0
-132 -139 0
-132 -140 0
-133 -134 0
-133 -135 0
-133 -136 0
-133 -137 0
-133 -138 0
-133 -139 0
-133 -140 0
-134 -135 0
-134 -136 0
-134 -137 0
-134 -138 0
-134 -139 0
-134 -140 0
-135 -136 0
-135 -137 0
-135 -138 0
-135 -139 0
-135 -140 0
-136 -137 0
-136 -138 0
-136 -139 0
-136 -140 0
-137 -138 0
-137 -139 0
-137 -140 0
-138 -139 0
-138 -140 0
-139 -140 0
141 142 143 144 145 146 147 148 149 150 0
-141 -142 0
-141 -143 0
-141 -144 0
-141 -145 0
-141 -146 0
-141 -147 0
-141 -148 0
-141 -149 0
-141 -150 0
-142 -143 0
-142 -144 0
-142 -145 0
-142 -146 0
-142 -147 0
-142 -148 0
-142 -149 0
-142 -150 0
-143 -144 0
-143 -145 0
-143 -146 0
-143 -147 0
-143 -148 0
-143 -149 0
-143 -150 0
-144 -145 0
-144 -146 0
-144 -147 0
-144 -148 0
-144 -149 0
-144 -150 0
-145 -146 0
-145 -147 0
-145 -148 0
-145 -149 0
-145 -150 0
-146 -147 0
-146 -148 0
-146 -149 0
-146 -150 0
-147 -148 0
-147 -149 0
-147 -150 0
-148 -149 0
-148 -150 0
-149 -150 0
151 152 153 154 155 156 157 158 159 160 0
-151 -152 0
-151 -153 0
-151 -154 0
-151 -155 0
-151 -156 0
-151 -157 0
-151 -158 0
-151 -159 0
-151 -160 0
-152 -153 0
-152 -154 0
-152 -155 0
-152 -156 0
-152 -157 0
-152 -158 0
-152 -159 0
-152 -160 0
-153 -154 0
-153 -155 0
-153 -156 0
-153 -157 0
-153 -158 0
-153 -159 0
-153 -160 0
-154 -155 0
-154 -156 0
-154 -157 0
-154 -158 0
-154 -159 0
-154 -160 0
-155 -156 0
-155 -157 0
-155 -158 0
-155 -159 0
-155 -160 0
-156 -157 0
-156 -158 0
-156 -159 0
-156 -160 0
-157 -158 0
-157 -159 0
-157 -160 0
-158 -159 0
-158 -160 0
-159 -160 0
161 162 163 164 165 166 167 168 169 170 0
-161 -162 0
-161 -163 0
-161 -164 0
-161 -165 0
-161 -166 0
-161 -167 0
-161 -168 0
-161 -169 0
-161 -170 0
-162 -163 0
-162 -164 0
-162 -165 0
-162 -166 0
-162 -167 0
-162 -168 0
-162 -169 0
-162 -170 0
-163 -164 0
-163 -165 0
-163 -166 0
-163 -167 0
-163 -168 0
-163 -169 0
-163 -170 0
-164 -165 0
-164 -166 0
-164 -167 0
-164 -168 0
-164 -169 0
-164 -170 0
-165 -166 0
-165 -167 0
-165 -168 0
-165 -169 0
-165 -170 0
-166 -167 0
-166 -168 0
-166 -169 0
-166 -170 0
-167 -168 0
-167 -169 0
-167 -170 0
-168 -169 0
-168 -170 0
-169 -170 0
171 172 173 174 175 176 177 178 179 180 0
-171 -172 0
-171 -173 0
-171 -174 0
-171 -175 0
-171 -176 0
-171 -177 0
-171 -178 0
-171 -179 0
-171 -180 0
-172 -173 0
-172 -174 0
-172 -175 0
-172 -176 0
-172 -177 0
-172 -178 0
-172 -179 0
-172 -180 0
-173 -174 0
-173 -175 0
-173 -176 0
-173 -177 0
-173 -178 0
-173 -179 0
-173 -180 0
-174 -175 0
-174 -176 0
-174 -177 0
-174 -178 0
-174 -179 0
-174 -180 0
-175 -176 0
-175 -177 0
-175 -178 0
-175 -179 0
-175 -180 0
-176 -177 0
-176 -178 0
-176 -179 0
-176 -180 0
-177 -178 0
-177 -179 0
-177 -180 0
-178 -179 0
-178 -180 0
-179 -180 0
181 182 183 184 185 186 187 188 189 190 0
-181 -182 0
-181 -183 0
-181 -184 0
-181 -185 0
-181 -186 0
-181 -187 0
-181 -188 0
-181 -189 0
-181 -190 0
-182 -183 0
-182 -184 0
-182 -185 0
-182 -186 0
-182 -187 0
-182 -188 0
-182 -189 0
-182 -190 0
-183 -184 0
-183 -185 0
-183 -186 0
-183 -187 0
-183 -188 0
-183 -189 0
-183 -190 0
-184 -185 0
-184 -186 0
-184 -187 0
-184 -188 0
-184 -189 0
-184 -190 0
-185 -186 0
-185 -187 0
-185 -188 0
-185 -189 0
-185 -190 0
-186 -187 0
-186 -188 0
-186 -189 0
-186 -190 0
-187 -188 0
-187 -189 0
-187 -190 0
-188 -189 0
-188 -190 0
-189 -190 0
191 192 193 194 195 196 197 198 199 200 0
-191 -192 0
-191 -193 0
-191 -194 0
-191 -195 0
-191 -196 0
-191 -197 0
-191 -198 0
-191 -199 0
-191 -200 0
-192 -193 0
-192 -194 0
-192 -195 0
-192 -196 0
-192 -197 0
-192 -198 0
-192 -199 0
-192 -200 0
-193 -194 0
-193 -195 0
-193 -196 0
-193 -197 0
-193 -198 0
-193 -199 0
-193 -200 0
-194 -195 0
-194 -196 0
-194 -197 0
-194 -198 0
-194 -199 0
-194 -200 0
-195 -196 0
-195 -197 0
-195 -198 0
-195 -199 0
-195 -200 0
-196 -197 0
-196 -198 0
-196 -199 0
-196 -200 0
-197 -198 0
-197 -199 0
-197 -200 0
-198 -199 0
-198 -200 0
-199 -200 0
201 202 203 204 205 206 207 208 209 210 0
-201 -202 0
-201 -203 0
-201 -204 0
-201 -205 0
-201 -206 0
-201 -207 0
-201 -208 0
-201 -209 0
-201 -210 0
-202 -203 0
-202 -204 0
-202 -205 0
-202 -206 0
-202 -207 0
-202 -208 0
-202 -209 0
-202 -210 0
-203 -204 0
-203 -205 0
-203 -206 0
-203 -207 0
-203 -208 0
-203 -209 0
-203 -210 0
-204 -205 0
-204 -206 0
-204 -207 0
-204 -208 0
-204 -209 0
-204 -210 0
-205 -206 0
-205 -207 0
-205 -208 0
-205 -209 0
-205 -210 0
-206 -207 0
-206 -208 0
-206 -209 0
-206 -210 0
-207 -208 0
-207 -209 0
-207 -210 0
-208 -209 0
-208 -210 0
-209 -210 0
211 212 213 214 215 216 217 218 219 220 0
-211 -212 0
-211 -213 0
-211 -214 0
-211 -215 0
-211 -216 0
-211 -217 0
-211 -218 0
-211 -219 0
-211 -220 0
-212 -213 0
-212 -214 0
-212 -215 0
-212 -216 0
-212 -217 0
-212 -218 0
-212 -219 0
-212 -220 0
-213 -214 0
-213 -215 0
-213 -216 0
-213 -217 0
-213 -218 0
-213 -219 0
-213 -220 0
-214 -215 0
-214 -216 0
-214 -217 0
-214 -218 0
-214 -219 0
-214 -220 0
-215 -216 0
-215 -217 0
-215 -218 0
-215 -219 0
-215 -220 0
-216 -217 0
-216 -218 0
-216 -219 0
-216 -220 0
-217 -218 0
-217 -219 0
-217 -220 0
-218 -219 0
-218 -220 0
-219 -220 0
221 222 223 224 225 226 227 228 229 230 0
-221 -222 0
-221 -223 0
-221 -224 0
-221 -225 0
-221 -226 0
-221 -227 0
-221 -228 0
-221 -229 0
-221 -230 0
-222 -223 0
-222 -224 0
-222 -225 0
-222 -226 0
-222 -227 0
-222 -228 0
-222 -229 0
-222 -230 0
-223 -224 0
-223 -225 0
-223 -226 0
-223 -227 0
-223 -228 0
-223 -229 0
-223 -230 0
-224 -225 0
-224 -226 0
-224 -227 0
-224 -228 0
-224 -229 0
-224 -230 0
-225 -226 0
-225 -227 0
-225 -228 0
-225 -229 0
-225 -230 0
-226 -227 0
-226 -228 0
-226 -229 0
-226 -230 0
-227 -228 0
-227 -229 0
-227 -230 0
-228 -229 0
-228 -230 0
-229 -230 0
231 232 233 234 235 236 237 238 239 240 0
-231 -232 0
-231 -233 0
-231 -234 0
-231 -235 0
-231 -236 0
-231 -237 0
-231 -238 0
-231 -239 0
-231 -240 0
-232 -233 0
-232 -234 0
-232 -235 0
-232 -236 0
-232 -237 0
-232 -238 0
-232 -239 0
-232 -240 0
-233 -234 0
-233 -235 0
-233 -236 0
-233 -237 0
-233 -238 0
-233 -239 0
-233 -240 0
-234 -235 0
-234 -236 0
-234 -237 0
-234 -238 0
-234 -239 0
-234 -240 0
-235 -236 0
-235 -237 0
-235 -238 0
-235 -239 0
-235 -240 0
-236 -237 0
-236 -238 0
-236 -239 0
-236 -240 0
-237 -238 0
-237 -239 0
-237 -240 0
-238 -239 0
-238 -240 0
-239 -240 0
241 242 243 244 245 246 247 248 249 250 0
-241 -242 0
-241 -243 0
-241 -244 0
-241 -245 0
-241 -246 0
-241 -247 0
-241 -248 0
-241 -249 0
-241 -250 0
-242 -243 0
-242 -244 0
-242 -245 0
-242 -246 0
-242 -247 0
-242 -248 0
-242 -249 0
-242 -250 0
-243 -244 0
-243 -245 0
-243 -246 0
-243 -247 0
-243 -248 0
-243 -249 0
-243 -250 0
-244 -245 0
-244 -246 0
-244 -247 0
-244 -248 0
-244 -249 0
-244 -250 0
-245 -246 0
-245 -247 0
-245 -248 0
-245 -249 0
-245 -250 0
-246 -247 0
-246 -248 0
-246 -249 0
-246 -250 0
-247 -248 0
-247 -249 0
-247 -250 0
-248 -249 0
-248 -250 0
-249 -250 0
251 252 253 254 255 256 257 258 259 260 0
-251 -252 0
-251 -253 0
-251 -254 0
-251 -255 0
-251 -256 0
-251 -257 0
-251 -258 0
-251 -259 0
-251 -260 0
-252 -253 0
-252 -254 0
-252 -255 0
-252 -256 0
-252 -257 0
-252 -258 0
-252 -259 0
-252 -260 0
-253 -254 0
-253 -255 0
-253 -256 0
-253 -257 0
-253 -258 0
-253 -259 0
-253 -260 0
-254 -255 0
-254 -256 0
-254 -257 0
-254 -258 0
-254 -259 0
-254 -260 0
-255 -256 0
-255 -257 0
-255 -258 0
-255 -259 0
-255 -260 0
-256 -257 0
-256 -258 0
-256 -259 0
-256 -260 0
-257 -258 0
-257 -259 0
-257 -260 0
-258 -259 0
-258 -260 0
-259 -260 0
261 262 263 264 265 266 267 268 269 270 0
-261 -262 0
-261 -263 0
-261 -264 0
-261 -265 0
-261 -266 0
-261 -267 0
-261 -268 0
-261 -269 0
-261 -270 0
-262 -263 0
-262 -264 0
-262 -265 0
-262 -266 0
-262 -267 0
-262 -268 0
-262 -269 0
-262 -270 0
-263 -264 0
-263 -265 0
-263 -266 0
-263 -267 0
-263 -268 0
-263 -269 0
-263 -270 0
-264 -265 0
-264 -266 0
-264 -267 0
-264 -268 0
-264 -269 0
-264 -270 0
-265 -266 0
-265 -267 0
-265 -268 0
-265 -269 0
-265 -270 0
-266 -267 0
-266 -268 0
-266 -269 0
-266 -270 0
-267 -268 0
-267 -269 0
-267 -270 0
-268 -269 0
-268 -270 0
-269 -270 0
271 272 273 274 275 276 277 278 279 280 0
-271 -272 0
-271 -273 0
-271 -274 0
-271 -275 0
-271 -276 0
-271 -277 0
-271 -278 0
-271 -279 0
-271 -280 0
-272 -273 0
-272 -274 0
-272 -275 0
-272 -276 0
-272 -277 0
-272 -278 0
-272 -279 0
-272 -280 0
-273 -274 0
-273 -275 0
-273 -276 0
-273 -277 0
-273 -278 0
-273 -279 0
-273 -280 0
-274 -275 0
-274 -276 0
-274 -277 0
-274 -278 0
-274 -279 0
-274 -280 0
-275 -276 0
-275 -277 0
-275 -278 0
-275 -279 0
-275 -280 0
-276 -277 0
-276 -278 0
-276 -279 0
-276 -280 0
-277 -278 0
-277 -279 0
-277 -280 0
-278 -279 0
-278 -280 0
-279 -280 0
281 282 283 284 285 286 287 288 289 290 0
-281 -282 0
-281 -283 0
-281 -284 0
-281 -285 0
-281 -286 0
-281 -287 0
-281 -288 0
-281 -289 0
-281 -290 0
-282 -283 0
-282 -284 0
-282 -285 0
-282 -286 0
-282 -287 0
-282 -288 0
-282 -289 0
-282 -290 0
-283 -284 0
-283 -285 0
-283 -286 0
-283 -287 0
-283 -288 0
-283 -289 0
-283 -290 0
-284 -285 0
-284 -286 0
-284 -287 0
-284 -288 0
-284 -289 0
-284 -290 0
-285 -286 0
-285 -287 0
-285 -288 0
-285 -289 0
-285 -290 0
-286 -287 0
-286 -288 0
-286 -289 0
-286 -290 0
-287 -288 0
-287 -289 0
-287 -290 0
-288 -289 0
-288 -290 0
-289 -290 0
291 292 293 294 295 296 297 298 299 300 0
-291 -292 0
-291 -293 0
-291 -294 0
-291 -295 0
-291 -296 0
-291 -297 0
-291 -298 0
-291 -299 0
-291 -300 0
-292 -293 0
-292 -294 0
-292 -295 0
-292 -296 0
-292 -297 0
-292 -298 0
-292 -299 0
-292 -300 0
-293 -294 0
-293 -295 0
-293 -296 0
-293 -297 0
-293 -298 0
-293 -299 0
-293 -300 0
-294 -295 0
-294 -296 0
-294 -297 0
-294 -298 0
-294 -299 0
-294 -300 0
-295 -296 0
-295 -297 0
-295 -298 0
-295 -299 0
-295 -300 0
-296 -297 0
-296 -298 0
-296 -299 0
-296 -300 0
-297 -298 0
-297 -299 0
-297 -300 0
-298 -299 0
-298 -300 0
-299 -300 0
301 302 303 304 305 306 307 308 309 310 0
-301 -302 0
-301 -303 0
-301 -304 0
-301 -305 0
-301 -306 0
-301 -307 0
-301 -308 0
-301 -309 0
-301 -310 0
-302 -303 0
-302 -304 0
-302 -305 0
-302 -306 0
-302 -307 0
-302 -308 0
-302 -309 0
-302 -310 0
-303 -304 0
-303 -305 0
-303 -306 0
-303 -307 0
-303 -308 0
-303 -309 0
-303 -310 0
-304 -305 0
-304 -306 0
-304 -307 0
-304 -308 0
-304 -309 0
-304 -310 0
-305 -306 0
-305 -307 0
-305 -308 0
-305 -309 0
-305 -310 0
-306 -307 0
-306 -308 0
-306 -309 0
-306 -310 0
-307 -308 0
-307 -309 0
-307 -310 0
-308 -309 0
-308 -310 0
-309 -310 0
311 312 313 314 315 316 317 318 319 320 0
-311 -312 0
-311 -313 0
-311 -314 0
-311 -315 0
-311 -316 0
-311 -317 0
-311 -318 0
-311 -319 0
-311 -320 0
-312 -313 0
-312 -314 0
-312 -315 0
-312 -316 0
-312 -317 0
-312 -318 0
-312 -319 0
-312 -320 0
-313 -314 0
-313 -315 0
-313 -316 0
-313 -317 0
-313 -318 0
-313 -319 0
-313 -320 0
-314 -315 0
-314 -316 0
-314 -317 0
-314 -318 0
-314 -319 0
-314 -320 0
-315 -316 0
-315 -317 0
-315 -318 0
-315 -319 0
-315 -320 0
-316 -317 0
-316 -318 0
-316 -319 0
-316 -320 0
-317 -318 0
-317 -319 0
-317 -320 0
-318 -319 0
-318 -320 0
-319 -320 0
321 322 323 324 325 326 327 328 329 330 0
-321 -322 0
-321 -323 0
-321 -324 0
-321 -325 0
-321 -326 0
-321 -327 0
-321 -328 0
-321 -329 0
-321 -330 0
-322 -323 0
-322 -324 0
-322 -325 0
-322 -326 0
-322 -327 0
-322 -328 0
-322 -329 0
-322 -330 0
-323 -324 0
-323 -325 0
-323 -326 0
-323 -327 0
-323 -328 0
-323 -329 0
-323 -330 0
-324 -325 0
-324 -326 0
-324 -327 0
-324 -328 0
-324 -329 0
-324 -330 0
-325 -326 0
-325 -327 0
-325 -328 0
-325 -329 0
-325 -330 0
-326 -327 0
-326 -328 0
-326 -329 0
-326 -330 0
-327 -328 0
-327 -329 0
-327 -330 0
-328 -329 0
-328 -330 0
-329 -330 0
331 332 333 334 335 336 337 338 339 340 0
-331 -332 0
-331 -333 0
-331 -334 0
-331 -335 0
-331 -336 0
-331 -337 0
-331 -338 0
-331 -339 0
-331 -340 0
-332 -333 0
-332 -334 0
-332 -335 0
-332 -336 0
-332 -337 0
-332 -338 0
-332 -339 0
-332 -340 0
-333 -334 0
-333 -335 0
-333 -336 0
-333 -337 0
-333 -338 0
-333 -339 0
-333 -340 0
-334 -335 0
-334 -336 0
-334 -337 0
-334 -338 0
-334 -339 0
-334 -340 0
-335 -336 0
-335 -337 0
-335 -338 0
-335 -339 0
-335 -340 0
-336 -337 0
-336 -338 0
-336 -339 0
-336 -340 0
-337 -338 0
-337 -339 0
-337 -340 0
-338 -339 0
-338 -340 0
-339 -340 0
341 342 343 344 345 346 347 348 349 350 0
-341 -342 0
-341 -343 0
-341 -344 0
-341 -345 0
-341 -346 0
-341 -347 0
-341 -348 0
-341 -349 0
-341 -350 0
-342 -343 0
-342 -344 0
-342 -345 0
-342 -346 0
-342 -347 0
-342 -348 0
-342 -349 0
-342 -350 0
-343 -344 0
-343 -345 0
-343 -346 0
-343 -347 0
-343 -348 0
-343 -349 0
-343 -350 0
-344 -345 0
-344 -346 0
-344 -347 0
-344 -348 0
-344 -349 0
-344 -350 0
-345 -346 0
-345 -347 0
-345 -348 0
-345 -349 0
-345 -350 0
-346 -347 0
-346 -348 0
-346 -349 0
-346 -350 0
-347 -348 0
-347 -349 0
-347 -350 0
-348 -349 0
-348 -350 0
-349 -350 0
351 352 353 354 355 356 357 358 359 360 0
-351 -352 0
-351 -353 0
-351 -354 0
-351 -355 0
-351 -356 0
-351 -357 0
-351 -358 0
-351 -359 0
-351 -360 0
-352 -353 0
-352 -354 0
-352 -355 0
-352 -356 0
-352 -357 0
-352 -358 0
-352 -359 0
-352 -360 0
-353 -354 0
-353 -355 0
-353 -356 0
-353 -357 0
-353 -358 0
-353 -359 0
-353 -360 0
-354 -355 0
-354 -356 0
-354 -357 0
-354 -358 0
-354 -359 0
-354 -360 0
-355 -356 0
-355 -357 0
-355 -358 0
-355 -359 0
-355 -360 0
-356 -357 0
-356 -358 0
-356 -359 0
-356 -360 0
-357 -358 0
-357 -359 0
-357 -360 0
-358 -359 0
-358 -360 0
-359 -360 0
361 362 363 364 365 366 367 368 369 370 0
-361 -362 0
-361 -363 0
-361 -364 0
-361 -365 0
-361 -366 0
-361 -367 0
-361 -368 0
-361 -369 0
-361 -370 0
-362 -363 0
-362 -364 0
-362 -365 0
-362 -366 0
-362 -367 0
-362 -368 0
-362 -369 0
-362 -370 0
-363 -364 0
-363 -365 0
-363 -366 0
-363 -367 0
-363 -368 0
-363 -369 0
-363 -370 0
-364 -365 0
-364 -366 0
-364 -367 0
-364 -368 0
-364 -369 0
-364 -370 0
-365 -366 0
-365 -367 0
-365 -368 0
-365 -369 0
-365 -370 0
-366 -367 0
-366 -368 0
-366 -369 0
-366 -370 0
-367 -368 0
-367 -369 0
-367 -370 0
-368 -369 0
-368 -370 0
-369 -370 0
371 372 373 374 375 376 377 378 379 380 0
-371 -372 0
-371 -373 0
-371 -374 0
-371 -375 0
-371 -376 0
-371 -377 0
-371 -378 0
-371 -379 0
-371 -380 0
-372 -373 0
-372 -374 0
-372 -375 0
-372 -376 0
-372 -377 0
-372 -378 0
-372 -379 0
-372 -380 0
-373 -374 0
-373 -375 0
-373 -376 0
-373 -377 0
-373 -378 0
-373 -379 0
-373 -380 0
-374 -375 0
-374 -376 0
-374 -377 0
-374 -378 0
-374 -379 0
-374 -380 0
-375 -376 0
-375 -377 0
-375 -378 0
-375 -379 0
-375 -380 0
-376 -377 0
-376 -378 0
-376 -379 0
-376 -380 0
-377 -378 0
-377 -379 0
-377 -380 0
-378 -379 0
-378 -380 0
-379 -380 0
381 382 383 384 385 386 387 388 389 390 0
-381 -382 0
-381 -383 0
-381 -384 0
-381 -385 0
-381 -386 0
-381 -387 0
-381 -388 0
-381 -389 0
-381 -390 0
-382 -383 0
-382 -384 0
-382 -385 0
-382 -386 0
-382 -387 0
-382 -388 0
-382 -389 0
-382 -390 0
-383 -384 0
-383 -385 0
-383 -386 0
-383 -387 0
-383 -388 0
-383 -389 0
-383 -390 0
-384 -385 0
-384 -386 0
-384 -387 0
-384 -388 0
-384 -389 0
-384 -390 0
-385 -386 0
-385 -387 0
-385 -388 0
-385 -389 0
-385 -390 0
-386 -387 0
-386 -388 0
-386 -389 0
-386 -390 0
-387 -388 0
-387 -389 0
-387 -390 0
-388 -389 0
-388 -390 0
-389 -390 0
391 392 393 394 395 396 397 398 399 400 0
-391 -392 0
-391 -393 0
-391 -394 0
-391 -395 0
-391 -396 0
-391 -397 0
-391 -398 0
-391 -399 0
-391 -400 0
-392 -393 0
-392 -394 0
-392 -395 0
-392 -396 0
-392 -397 0
-392 -398 0
-392 -399 0
-392 -400 0
-393 -394 0
-393 -395 0
-393 -396 0
-393 -397 0
-393 -398 0
-393 -399 0
-393 -400 0
-394 -395 0
-394 -396 0
-394 -397 0
-394 -398 0
-394 -399 0
-394 -400 0
-395 -396 0
-395 -397 0
-395 -398 0
-395 -399 0
-395 -400 0
-396 -397 0
-396 -398 0
-396 -399 0
-396 -400 0
-397 -398 0
-397 -399 0
-397 -400 0
-398 -399 0
-398 -400 0
-399 -400 0
401 402 403 404 405 406 407 408 409 410 0
-401 -402 0
-401 -403 0
-401 -404 0
-401 -405 0
-401 -406 0
-401 -407 0
-401 -408 0
-401 -409 0
-401 -410 0
-402 -403 0
-402 -404 0
-402 -405 0
-402 -406 0
-402 -407 0
-402 -408 0
-402 -409 0
-402 -410 0
-403 -404 0
-403 -405 0
-403 -406 0
-403 -407 0
-403 -408 0
-403 -409 0
-403 -410 0
-404 -405 0
-404 -406 0
-404 -407 0
-404 -408 0
-404 -409 0
-404 -410 0
-405 -406 0
-405 -407 0
-405 -408 0
-405 -409 0
-405 -410 0
-406 -407 0
-406 -408 0
-406 -409 0
-406 -410 0
-407 -408 0
-407 -409 0
-407 -410 0
-408 -409 0
-408 -410 0
-409 -410 0
411 412 413 414 415 416 417 418 419 420 0
-411 -412 0
-411 -413 0
-411 -414 0
-411 -415 0
-411 -416 0
-411 -417 0
-411 -418 0
-411 -419 0
-411 -420 0
-412 -413 0
-412 -414 0
-412 -415 0
-412 -416 0
-412 -417 0
-412 -418 0
-412 -419 0
-412 -420 0
-413 -414 0
-413 -415 0
-413 -416 0
-413 -417 0
-413 -418 0
-413 -419 0
-413 -420 0
-414 -415 0
-414 -416 0
-414 -417 0
-414 -418 0
-414 -419 0
-414 -420 0
-415 -416 0
-415 -417 0
-415 -418 0
-415 -419 0
-415 -420 0
-416 -417 0
-416 -418 0
-416 -419 0
-416 -420 0
-417 -418 0
-417 -419 0
-417 -420 0
-418 -419 0
-418 -420 0
-419 -420 0
421 422 423 424 425 426 427 428 429 430 0
-421 -422 0
-421 -423 0
-421 -424 0
-421 -425 0
-421 -426 0
-421 -427 0
-421 -428 0
-421 -429 0
-421 -430 0
-422 -423 0
-422 -424 0
-422 -425 0
-422 -426 0
-422 -427 0
-422 -428 0
-422 -429 0
-422 -430 0
-423 -424 0
-423 -425 0
-423 -426 0
-423 -427 0
-423 -428 0
-423 -429 0
-423 -430 0
-424 -425 0
-424 -426 0
-424 -427 0
-424 -428 0
-424 -429 0
-424 -430 0
-425 -426 0
-425 -427 0
-425 -428 0
-425 -429 0
-425 -430 0
-426 -427 0
-426 -428 0
-426 -429 0
-426 -430 0
-427 -428 0
-427 -429 0
-427 -430 0
-428 -429 0
-428 -430 0
-429 -430 0
431 432 433 434 435 436 437 438 439 440 0
-431 -432 0
-431 -433 0
-431 -434 0
-431 -435 0
-431 -436 0
-431 -437 0
-431 -438 0
-431 -439 0
-431 -440 0
-432 -433 0
-432 -434 0
-432 -435 0
-432 -436 0
-432 -437 0
-432 -438 0
-432 -439 0
-432 -440 0
-433 -434 0
-433 -435 0
-433 -436 0
-433 -437 0
-433 -438 0
-433 -439 0
-433 -440 0
-434 -435 0
-434 -436 0
-434 -437 0
-434 -438 0
-434 -439 0
-434 -440 0
-435 -436 0
-435 -437 0
-435 -438 0
-435 -439 0
-435 -440 0
-436 -437 0
-436 -438 0
-436 -439 0
-436 -440 0
-437 -438 0
-437 -439 0
-437 -440 0
-438 -439 0
-438 -440 0
-439 -440 0
441 442 443 444 445 446 447 448 449 450 0
-441 -442 0
-441 -443 0
-441 -444 0
-441 -445 0
-441 -446 0
-441 -447 0
-441 -448 0
-441 -449 0
-441 -450 0
-442 -443 0
-442 -444 0
-442 -445 0
-442 -446 0
-442 -447 0
-442 -448 0
-442 -449 0
-442 -450 0
-443 -444 0
-443 -445 0
-443 -446 0
-443 -447 0
-443 -448 0
-443 -449 0
-443 -450 0
-444 -445 0
-444 -446 0
-444 -447 0
-444 -448 0
-444 -449 0
-444 -450 0
-445 -446 0
-445 -447 0
-445 -448 0
-445 -449 0
-445 -450 0
-446 -447 0
-446 -448 0
-446 -449 0
-446 -450 0
-447 -448 0
-447 -449 0
-447 -450 0
-448 -449 0
-448 -450 0
-449 -450 0
451 452 453 454 455 456 457 458 459 460 0
-451 -452 0
-451 -453 0
-451 -454 0
-451 -455 0
-451 -456 0
-451 -457 0
-451 -458 0
-451 -459 0
-451 -460 0
-452 -453 0
-452 -454 0
-452 -455 0
-452 -456 0
-452 -457 0
-452 -458 0
-452 -459 0
-452 -460 0
-453 -454 0
-453 -455 0
-453 -456 0
-453 -457 0
-453 -458 0
-453 -459 0
-453 -460 0
-454 -455 0
-454 -456 0
-454 -457 0
-454 -458 0
-454 -459 0
-454 -460 0
-455 -456 0
-455 -457 0
-455 -458 0
-455 -459 0
-455 -460 0
-456 -457 0
-456 -458 0
-456 -459 0
-456 -460 0
-457 -458 0
-457 -459 0
-457 -460 0
-458 -459 0
-458 -460 0
-459 -460 0
461 462 463 464 465 466 467 468 469 470 0
-461 -462 0
-461 -463 0
-461 -464 0
-461 -465 0
-461 -466 0
-461 -467 0
-461 -468 0
-461 -469 0
-461 -470 0
-462 -463 0
-462 -464 0
-462 -465 0
-462 -466 0
-462 -467 0
-462 -468 0
-462 -469 0
-462 -470 0
-463 -464 0
-463 -465 0
-463 -466 0
-463 -467 0
-463 -468 0
-463 -469 0
-463 -470 0
-464 -465 0
-464 -466 0
-464 -467 0
-464 -468 0
-464 -469 0
-464 -470 0
-465 -466 0
-465 -467 0
-465 -468 0
-465 -469 0
-465 -470 0
-466 -467 0
-466 -468 0
-466 -469 0
-466 -470 0
-467 -468 0
-467 -469 0
-467 -470 0
-468 -469 0
-468 -470 0
-469 -470 0
471 472 473 474 475 476 477 478 479 480 0
-471 -472 0
-471 -473 0
-471 -474 0
-471 -475 0
-471 -476 0
-471 -477 0
-471 -478 0
-471 -479 0
-471 -480 0
-472 -473 0
-472 -474 0
-472 -475 0
-472 -476 0
-472 -477 0
-472 -478 0
-472 -479 0
-472 -480 0
-473 -474 0
-473 -475 0
-473 -476 0
-473 -477 0
-473 -478 0
-473 -479 0
-473 -480 0
-474 -475 0
-474 -476 0
-474 -477 0
-474 -478 0
-474 -479 0
-474 -480 0
-475 -476 0
-475 -477 0
-475 -478 0
-475 -479 0
-475 -480 0
-476 -477 0
-476 -478 0
-476 -479 0
-476 -480 0
-477 -478 0
-477 -479 0
-477 -480 0
-478 -479 0
-478 -480 0
-479 -480 0
481 482 483 484 485 486 487 488 489 490 0
-481 -482 0
-481 -483 0
-481 -484 0
-481 -485 0
-481 -486 0
-481 -487 0
-481 -488 0
-481 -489 0
-481 -490 0
-482 -483 0
-482 -484 0
-482 -485 0
-482 -486 0
-482 -487 0
-482 -488 0
-482 -489 0
-482 -490 0
-483 -484 0
-483 -485 0
-483 -486 0
-483 -487 0
-483 -488 0
-483 -489 0
-483 -490 0
-484 -485 0
-484 -486 0
-484 -487 0
-484 -488 0
-484 -489 0
-484 -490 0
-485 -486 0
-485 -487 0
-485 -488 0
-485 -489 0
-485 -490 0
-486 -487 0
-486 -488 0
-486 -489 0
-486 -490 0
-487 -488 0
-487 -489 0
-487 -490 0
-488 -489 0
-488 -490 0
-489 -490 0
491 492 493 494 495 496 497 498 499 500 0
-491 -492 0
-491 -493 0
-491 -494 0
-491 -495 0
-491 -496 0
-491 -497 0
-491 -498 0
-491 -499 0
-491 -500 0
-492 -493 0
-492 -494 0
-492 -495 0
-492 -496 0
-492 -497 0
-492 -498 0
-492 -499 0
-492 -500 0
-493 -494 0
-493 -495 0
-493 -496 0
-493 -497 0
-493 -498 0
-493 -499 0
-493 -500 0
-494 -495 0
-494 -496 0
-494 -497 0
-494 -498 0
-494 -499 0
-494 -500 0
-495 -496 0
-495 -497 0
-495 -498 0
-495 -499 0
-495 -500 0
-496 -497 0
-496 -498 0
-496 -499 0
-496 -500 0
-497 -498 0
-497 -499 0
-497 -500 0
-498 -499 0
-498 -500 0
-499 -500 0
501 502 503 504 505 506 507 508 509 510 0
-501 -502 0
-501 -503 0
-501 -504 0
-501 -505 0
-501 -506 0
-501 -507 0
-501 -508 0
-501 -509 0
-501 -510 0
-502 -503 0
-502 -504 0
-502 -505 0
-502 -506 0
-502 -507 0
-502 -508 0
-502 -509 0
-502 -510 0
-503 -504 0
-503 -505 0
-503 -506 0
-503 -507 0
-503 -508 0
-503 -509 0
-503 -510 0
-504 -505 0
-504 -506 0
-504 -507 0
-504 -508 0
-504 -509 0
-504 -510 0
-505 -506 0
-505 -507 0
-505 -508 0
-505 -509 0
-505 -510 0
-506 -507 0
-506 -508 0
-506 -509 0
-506 -510 0
-507 -508 0
-507 -509 0
-507 -510 0
-508 -509 0
-508 -510 0
-509 -510 0
511 512 513 514 515 516 517 518 519 520 0
-511 -512 0
-511 -513 0
-511 -514 0
-511 -515 0
-511 -516 0
-511 -517 0
-511 -518 0
-511 -519 0
-511 -520 0
-512 -513 0
-512 -514 0
-512 -515 0
-512 -516 0
-512 -517 0
-512 -518 0
-512 -519 0
-512 -520 0
-513 -514 0
-513 -515 0
-513 -516 0
-513 -517 0
-513 -518 0
-513 -519 0
-513 -520 0
-514 -515 0
-514 -516 0
-514 -517 0
-514 -518 0
-514 -519 0
-514 -520 0
-515 -516 0
-515 -517 0
-515 -518 0
-515 -519 0
-515 -520 0
-516 -517 0
-516 -518 0
-516 -519 0
-516 -520 0
-517 -518 0
-517 -519 0
-517 -520 0
-518 -519 0
-518 -520 0
-519 -520 0
521 522 523 524 525 526 527 528 529 530 0
-521 -522 0
-521 -523 0
-521 -524 0
-521 -525 0
-521 -526 0
-521 -527 0
-521 -528 0
-521 -529 0
-521 -530 0
-522 -523 0
-522 -524 0
-522 -525 0
-522 -526 0
-522 -527 0
-522 -528 0
-522 -529 0
-522 -530 0
-523 -524 0
-523 -525 0
-523 -526 0
-523 -527 0
-523 -528 0
-523 -529 0
-523 -530 0
-524 -525 0
-524 -526 0
-524 -527 0
-524 -528 0
-524 -529 0
-524 -530 0
-525 -526 0
-525 -527 0
-525 -528 0
-525 -529 0
-525 -530 0
-526 -527 0
-526 -528 0
-526 -529 0
-526 -530 0
-527 -528 0
-527 -529 0
-527 -530 0
-528 -529 0
-528 -530 0
-529 -530 0
531 532 533 534 535 536 537 538 539 540 0
-531 -532 0
-531 -533 0
-531 -534 0
-531 -535 0
-531 -536 0
-531 -537 0
-531 -538 0
-531 -539 0
-531 -540 0
-532 -533 0
-532 -534 0
-532 -535 0
-532 -536 0
-532 -537 0
-532 -538 0
-532 -539 0
-532 -540 0
-533 -534 0
-533 -535 0
-533 -536 0
-533 -537 0
-533 -538 0
-533 -539 0
-533 -540 0
-534 -535 0
-534 -536 0
-534 -537 0
-534 -538 0
-534 -539 0
-534 -540 0
-535 -536 0
-535 -537 0
-535 -538 0
-535 -539 0
-535 -540 0
-536 -537 0
-536 -538 0
-536 -539 0
-536 -540 0
-537 -538 0
-537 -539 0
-537 -540 0
-538 -539 0
-538 -540 0
-539 -540 0
541 542 543 544 545 546 547 548 549 550 0
-541 -542 0
-541 -543 0
-541 -544 0
-541 -545 0
-541 -546 0
-541 -547 0
-541 -548 0
-541 -549 0
-541 -550 0
-542 -543 0
-542 -544 0
-542 -545 0
-542 -546 0
-542 -547 0
-542 -548 0
-542 -549 0
-542 -550 0
-543 -544 0
-543 -545 0
-543 -546 0
-543 -547 0
-543 -548 0
-543 -549 0
-543 -550 0
-544 -545 0
-544 -546 0
-544 -547 0
-544 -548 0
-544 -549 0
-544 -550 0
-545 -546 0
-545 -547 0
-545 -548 0
-545 -549 0
-545 -550 0
-546 -547 0
-546 -548 0
-546 -549 0
-546 -550 0
-547 -548 0
-547 -549 0
-547 -550 0
-548 -549 0
-548 -550 0
-549 -550 0
551 552 553 554 555 556 557 558 559 560 0
-551 -552 0
-551 -553 0
-551 -554 0
-551 -555 0
-551 -556 0
-551 -557 0
-551 -558 0
-551 -559 0
-551 -560 0
-552 -553 0
-552 -554 0
-552 -555 0
-552 -556 0
-552 -557 0
-552 -558 0
-552 -559 0
-552 -560 0
-553 -554 0
-553 -555 0
-553 -556 0
-553 -557 0
-553 -558 0
-553 -559 0
-553 -560 0
-554 -555 0
-554 -556 0
-554 -557 0
-554 -558 0
-554 -559 0
-554 -560 0
-555 -556 0
-555 -557 0
-555 -558 0
-555 -559 0
-555 -560 0
-556 -557 0
-556 -558 0
-556 -559 0
-556 -560 0
-557 -558 0
-557 -559 0
-557 -560 0
-558 -559 0
-558 -560 0
-559 -560 0
561 562 563 564 565 566 567 568 569 570 0
-561 -562 0
-561 -563 0
-561 -564 0
-561 -565 0
-561 -566 0
-561 -567 0
-561 -568 0
-561 -569 0
-561 -570 0
-562 -563 0
-562 -564 0
-562 -565 0
-562 -566 0
-562 -567 0
-562 -568 0
-562 -569 0
-562 -570 0
-563 -564 0
-563 -565 0
-563 -566 0
-563 -567 0
-563 -568 0
-563 -569 0
-563 -570 0
-564 -565 0
-564 -566 0
-564 -567 0
-564 -568 0
-564 -569 0
-564 -570 0
-565 -566 0
-565 -567 0
-565 -568 0
-565 -569 0
-565 -570 0
-566 -567 0
-566 -568 0
-566 -569 0
-566 -570 0
-567 -568 0
-567 -569 0
-567 -570 0
-568 -569 0
-568 -570 0
-569 -570 0
571 572 573 574 575 576 577 578 579 580 0
-571 -572 0
-571 -573 0
-571 -574 0
-571 -575 0
-571 -576 0
-571 -577 0
-571 -578 0
-571 -579 0
-571 -580 0
-572 -573 0
-572 -574 0
-572 -575 0
-572 -576 0
-572 -577 0
-572 -578 0
-572 -579 0
-572 -580 0
-573 -574 0
-573 -575 0
-573 -576 0
-573 -577 0
-573 -578 0
-573 -579 0
-573 -580 0
-574 -575 0
-574 -576 0
-574 -577 0
-574 -578 0
-574 -579 0
-574 -580 0
-575 -576 0
-575 -577 0
-575 -578 0
-575 -579 0
-575 -580 0
-576 -577 0
-576 -578 0
-576 -579 0
-576 -580 0
-577 -578 0
-577 -579 0
-577 -580 0
-578 -579 0
-578 -580 0
-579 -580 0
581 582 583 584 585 586 587 588 589 590 0
-581 -582 0
-581 -583 0
-581 -584 0
-581 -585 0
-581 -586 0
-581 -587 0
-581 -588 0
-581 -589 0
-581 -590 0
-582 -583 0
-582 -584 0
-582 -585 0
-582 -586 0
-582 -587 0
-582 -588 0
-582 -589 0
-582 -590 0
-583 -584 0
-583 -585 0
-583 -586 0
-583 -587 0
-583 -588 0
-583 -589 0
-583 -590 0
-584 -585 0
-584 -586 0
-584 -587 0
-584 -588 0
-584 -589 0
-584 -590 0
-585 -586 0
-585 -587 0
-585 -588 0
-585 -589 0
-585 -590 0
-586 -587 0
-586 -588 0
-586 -589 0
-586 -590 0
-587 -588 0
-587 -589 0
-587 -590 0
-588 -589 0
-588 -590 0
-589 -590 0
591 592 593 594 595 596 597 598 599 600 0
-591 -592 0
-591 -593 0
-591 -594 0
-591 -595 0
-591 -596 0
-591 -597 0
-591 -598 0
-591 -599 0
-591 -600 0
-592 -593 0
-592 -594 0
-592 -595 0
-592 -596 0
-592 -597 0
-592 -598 0
-592 -599 0
-592 -600 0
-593 -594 0
-593 -595 0
-593 -596 0
-593 -597 0
-593 -598 0
-593 -599 0
-593 -600 0
-594 -595 0
-594 -596 0
-594 -597 0
-594 -598 0
-594 -599 0
-594 -600 0
-595 -596 0
-595 -597 0
-595 -598 0
-595 -599 0
-595 -600 0
-596 -597 0
-596 -598 0
-596 -599 0
-596 -600 0
-597 -598 0
-597 -599 0
-597 -600 0
-598 -599 0
-598 -600 0
-599 -600 0
601 602 603 604 605 606 607 608 609 610 0
-601 -602 0
-601 -603 0
-601 -604 0
-601 -605 0
-601 -606 0
-601 -607 0
-601 -608 0
-601 -609 0
-601 -610 0
-602 -603 0
-602 -604 0
-602 -605 0
-602 -606 0
-602 -607 0
-602 -608 0
-602 -609 0
-602 -610 0
-603 -604 0
-603 -605 0
-603 -606 0
-603 -607 0
-603 -608 0
-603 -609 0
-603 -610 0
-604 -605 0
-604 -606 0
-604 -607 0
-604 -608 0
-604 -609 0
-604 -610 0
-605 -606 0
-605 -607 0
-605 -608 0
-605 -609 0
-605 -610 0
-606 -607 0
-606 -608 0
-606 -609 0
-606 -610 0
-607 -608 0
-607 -609 0
-607 -610 0
-608 -609 0
-608 -610 0
-609 -610 0
611 612 613 614 615 616 617 618 619 620 0
-611 -612 0
-611 -613 0
-611 -614 0
-611 -615 0
-611 -616 0
-611 -617 0
-611 -618 0
-611 -619 0
-611 -620 0
-612 -613 0
-612 -614 0
-612 -615 0
-612 -616 0
-612 -617 0
-612 -618 0
-612 -619 0
-612 -620 0
-613 -614 0
-613 -615 0
-613 -616 0
-613 -617 0
-613 -618 0
-613 -619 0
-613 -620 0
-614 -615 0
-614 -616 0
-614 -617 0
-614 -618 0
-614 -619 0
-614 -620 0
-615 -616 0
-615 -617 0
-615 -618 0
-615 -619 0
-615 -620 0
-616 -617 0
-616 -618 0
-616 -619 0
-616 -620 0
-617 -618 0
-617 -619 0
-617 -620 0
-618 -619 0
-618 -620 0
-619 -620 0
621 622 623 624 625 626 627 628 629 630 0
-621 -622 0
-621 -623 0
-621 -624 0
-621 -625 0
-621 -626 0
-621 -627 0
-621 -628 0
-621 -629 0
-621 -630 0
-622 -623 0
-622 -624 0
-622 -625 0
-622 -626 0
-622 -627 0
-622 -628 0
-622 -629 0
-622 -630 0
-623 -624 0
-623 -625 0
-623 -626 0
-623 -627 0
-623 -628 0
-623 -629 0
-623 -630 0
-624 -625 0
-624 -626 0
-624 -627 0
-624 -628 0
-624 -629 0
-624 -630 0
-625 -626 0
-625 -627 0
-625 -628 0
-625 -629 0
-625 -630 0
-626 -627 0
-626 -628 0
-626 -629 0
-626 -630 0
-627 -628 0
-627 -629 0
-627 -630 0
-628 -629 0
-628 -630 0
-629 -630 0
631 632 633 634 635 636 637 638 639 640 0
-631 -632 0
-631 -633 0
-631 -634 0
-631 -635 0
-631 -636 0
-631 -637 0
-631 -638 0
-631 -639 0
-631 -640 0
-632 -633 0
-632 -634 0
-632 -635 0
-632 -636 0
-632 -637 0
-632 -638 0
-632 -639 0
-632 -640 0
-633 -634 0
-633 -635 0
-633 -636 0
-633 -637 0
-633 -638 0
-633 -639 0
-633 -640 0
-634 -635 0
-634 -636 0
-634 -637 0
-634 -638 0
-634 -639 0
-634 -640 0
-635 -636 0
-635 -637 0
-635 -638 0
-635 -639 0
-635 -640 0
-636 -637 0
-636 -638 0
-636 -639 0
-636 -640 0
-637 -638 0
-637 -639 0
-637 -640 0
-638 -639 0
-638 -640 0
-639 -640 0
641 642 643 644 645 646 647 648 649 650 0
-641 -642 0
-641 -643 0
-641 -644 0
-641 -645 0
-641 -646 0
-641 -647 0
-641 -648 0
-641 -649 0
-641 -650 0
-642 -643 0
-642 -644 0
-642 -645 0
-642 -646 0
-642 -647 0
-642 -648 0
-642 -649 0
-642 -650 0
-643 -644 0
-643 -645 0
-643 -646 0
-643 -647 0
-643 -648 0
-643 -649 0
-643 -650 0
-644 -645 0
-644 -646 0
-644 -647 0
-644 -648 0
-644 -649 0
-644 -650 0
-645 -646 0
-645 -647 0
-645 -648 0
-645 -649 0
-645 -650 0
-646 -647 0
-646 -648 0
-646 -649 0
-646 -650 0
-647 -648 0
-647 -649 0
-647 -650 0
-648 -649 0
-648 -650 0
-649 -650 0
651 652 653 654 655 656 657 658 659 660 0
-651 -652 0
-651 -653 0
-651 -654 0
-651 -655 0
-651 -656 0
-651 -657 0
-651 -658 0
-651 -659 0
-651 -660 0
-652 -653 0
-652 -654 0
-652 -655 0
-652 -656 0
-652 -657 0
-652 -658 0
-652 -659 0
-652 -660 0
-653 -654 0
-653 -655 0
-653 -656 0
-653 -657 0
-653 -658 0
-653 -659 0
-653 -660 0
-654 -655 0
-654 -656 0
-654 -657 0
-654 -658 0
-654 -659 0
-654 -660 0
-655 -656 0
-655 -657 0
-655 -658 0
-655 -659 0
-655 -660 0
-656 -657 0
-656 -658 0
-656 -659 0
-656 -660 0
-657 -658 0
-657 -659 0
-657 -660 0
-658 -659 0
-658 -660 0
-659 -660 0
661 662 663 664 665 666 667 668 669 670 0
-661 -662 0
-661 -663 0
-661 -664 0
-661 -665 0
-661 -666 0
-661 -667 0
-661 -668 0
-661 -669 0
-661 -670 0
-662 -663 0
-662 -664 0
-662 -665 0
-662 -666 0
-662 -667 0
-662 -668 0
-662 -669 0
-662 -670 0
-663 -664 0
-663 -665 0
-663 -666 0
-663 -667 0
-663 -668 0
-663 -669 0
-663 -670 0
-664 -665 0
-664 -666 0
-664 -667 0
-664 -668 0
-664 -669 0
-664 -670 0
-665 -666 0
-665 -667 0
-665 -668 0
-665 -669 0
-665 -670 0
-666 -667 0
-666 -668 0
-666 -669 0
-666 -670 0
-667 -668 0
-667 -669 0
-667 -670 0
-668 -669 0
-668 -670 0
-669 -670 0
671 672 673 674 675 676 677 678 679 680 0
-671 -672 0
-671 -673 0
-671 -674 0
-671 -675 0
-671 -676 0
-671 -677 0
-671 -678 0
-671 -679 0
-671 -680 0
-672 -673 0
-672 -674 0
-672 -675 0
-672 -676 0
-672 -677 0
-672 -678 0
-672 -679 0
-672 -680 0
-673 -674 0
-673 -675 0
-673 -676 0
-673 -677 0
-673 -678 0
-673 -679 0
-673 -680 0
-674 -675 0
-674 -676 0
-674 -677 0
-674 -678 0
-674 -679 0
-674 -680 0
-675 -676 0
-675 -677 0
-675 -678 0
-675 -679 0
-675 -680 0
-676 -677 0
-676 -678 0
-676 -679 0
-676 -680 0
-677 -678 0
-677 -679 0
-677 -680 0
-678 -679 0
-678 -680 0
-679 -680 0
681 682 683 684 685 686 687 688 689 690 0
-681 -682 0
-681 -683 0
-681 -684 0
-681 -685 0
-681 -686 0
-681 -687 0
-681 -688 0
-681 -689 0
-681 -690 0
-682 -683 0
-682 -684 0
-682 -685 0
-682 -686 0
-682 -687 0
-682 -688 0
-682 -689 0
-682 -690 0
-683 -684 0
-683 -685 0
-683 -686 0
-683 -687 0
-683 -688 0
-683 -689 0
-683 -690 0
-684 -685 0
-684 -686 0
-684 -687 0
-684 -688 0
-684 -689 0
-684 -690 0
-685 -686 0
-685 -687 0
-685 -688 0
-685 -689 0
-685 -690 0
-686 -687 0
-686 -688 0
-686 -689 0
-686 -690 0
-687 -688 0
-687 -689 0
-687 -690 0
-688 -689 0
-688 -690 0
-689 -690 0
691 692 693 694 695 696 697 698 699 700 0
-691 -692 0
-691 -693 0
-691 -694 0
-691 -695 0
-691 -696 0
-691 -697 0
-691 -698 0
-691 -699 0
-691 -700 0
-692 -693 0
-692 -694 0
-692 -695 0
-692 -696 0
-692 -697 0
-692 -698 0
-692 -699 0
-692 -700 0
-693 -694 0
-693 -695 0
-693 -696 0
-693 -697 0
-693 -698 0
-693 -699 0
-693 -700 0
-694 -695 0
-694 -696 0
-694 -697 0
-694 -698 0
-694 -699 0
-694 -700 0
-695 -696 0
-695 -697 0
-695 -698 0
-695 -699 0
-695 -700 0
-696 -697 0
-696 -698 0
-696 -699 0
-696 -700 0
-697 -698 0
-697 -699 0
-697 -700 0
-698 -699 0
-698 -700 0
-699 -700 0
701 702 703 704 705 706 707 708 709 710 0
-701 -702 0
-701 -703 0
-701 -704 0
-701 -705 0
-701 -706 0
-701 -707 0
-701 -708 0
-701 -709 0
-701 -710 0
-702 -703 0
-702 -704 0
-702 -705 0
-702 -706 0
-702 -707 0
-702 -708 0
-702 -709 0
-702 -710 0
-703 -704 0
-703 -705 0
-703 -706 0
-703 -707 0
-703 -708 0
-703 -709 0
-703 -710 0
-704 -705 0
-704 -706 0
-704 -707 0
-704 -708 0
-704 -709 0
-704 -710 0
-705 -706 0
-705 -707 0
-705 -708 0
-705 -709 0
-705 -710 0
-706 -707 0
-706 -708 0
-706 -709 0
-706 -710 0
-707 -708 0
-707 -709 0
-707 -710 0
-708 -709 0
-708 -710 0
-709 -710 0
711 712 713 714 715 716 717 718 719 720 0
-711 -712 0
-711 -713 0
-711 -714 0
-711 -715 0
-711 -716 0
-711 -717 0
-711 -718 0
-711 -719 0
-711 -720 0
-712 -713 0
-712 -714 0
-712 -715 0
-712 -716 0
-712 -717 0
-712 -718 0
-712 -719 0
-712 -720 0
-713 -714 0
-713 -715 0
-713 -716 0
-713 -717 0
-713 -718 0
-713 -719 0
-713 -720 0
-714 -715 0
-714 -716 0
-714 -717 0
-714 -718 0
-714 -719 0
-714 -720 0
-715 -716 0
-715 -717 0
-715 -718 0
-715 -719 0
-715 -720 0
-716 -717 0
-716 -718 0
-716 -719 0
-716 -720 0
-717 -718 0
-717 -719 0
-717 -720 0
-718 -719 0
-718 -720 0
-719 -720 0
721 722 723 724 725 726 727 728 729 730 0
-721 -722 0
-721 -723 0
-721 -724 0
-721 -725 0
-721 -726 0
-721 -727 0
-721 -728 0
-721 -729 0
-721 -730 0
-722 -723 0
-722 -724 0
-722 -725 0
-722 -726 0
-722 -727 0
-722 -728 0
-722 -729 0
-722 -730 0
-723 -724 0
-723 -725 0
-723 -726 0
-723 -727 0
-723 -728 0
-723 -729 0
-723 -730 0
-724 -725 0
-724 -726 0
-724 -727 0
-724 -728 0
-724 -729 0
-724 -730 0
-725 -726 0
-725 -727 0
-725 -728 0
-725 -729 0
-725 -730 0
-726 -727 0
-726 -728 0
-726 -729 0
-726 -730 0
-727 -728 0
-727 -729 0
-727 -730 0
-728 -729 0
-728 -730 0
-729 -730 0
731 732 733 734 735 736 737 738 739 740 0
-731 -732 0
-731 -733 0
-731 -734 0
-731 -735 0
-731 -736 0
-731 -737 0
-731 -738 0
-731 -739 0
-731 -740 0
-732 -733 0
-732 -734 0
-732 -735 0
-732 -736 0
-732 -737 0
-732 -738 0
-732 -739 0
-732 -740 0
-733 -734 0
-733 -735 0
-733 -736 0
-733 -737 0
-733 -738 0
-733 -739 0
-733 -740 0
-734 -735 0
-734 -736 0
-734 -737 0
-734 -738 0
-734 -739 0
-734 -740 0
-735 -736 0
-735 -737 0
-735 -738 0
-735 -739 0
-735 -740 0
-736 -737 0
-736 -738 0
-736 -739 0
-736 -740 0
-737 -738 0
-737 -739 0
-737 -740 0
-738 -739 0
-738 -740 0
-739 -740 0
741 742 743 744 745 746 747 748 749 750 0
-741 -742 0
-741 -743 0
-741 -744 0
-741 -745 0
-741 -746 0
-741 -747 0
-741 -748 0
-741 -749 0
-741 -750 0
-742 -743 0
-742 -744 0
-742 -745 0
-742 -746 0
-742 -747 0
-742 -748 0
-742 -749 0
-742 -750 0
-743 -744 0
-743 -745 0
-743 -746 0
-743 -747 0
-743 -748 0
-743 -749 0
-743 -750 0
-744 -745 0
-744 -746 0
-744 -747 0
-744 -748 0
-744 -749 0
-744 -750 0
-745 -746 0
-745 -747 0
-745 -748 0
-745 -749 0
-745 -750 0
-746 -747 0
-746 -748 0
-746 -749 0
-746 -750 0
-747 -748 0
-747 -749 0
-747 -750 0
-748 -749 0
-748 -750 0
-749 -750 0
751 752 753 754 755 756 757 758 759 760 0
-751 -752 0
-751 -753 0
-751 -754 0
-751 -755 0
-751 -756 0
-751 -757 0
-751 -758 0
-751 -759 0
-751 -760 0
-752 -753 0
-752 -754 0
-752 -755 0
-752 -756 0
-752 -757 0
-752 -758 0
-752 -759 0
-752 -760 0
-753 -754 0
-753 -755 0
-753 -756 0
-753 -757 0
-753 -758 0
-753 -759 0
-753 -760 0
-754 -755 0
-754 -756 0
-754 -757 0
-754 -758 0
-754 -759 0
-754 -760 0
-755 -756 0
-755 -757 0
-755 -758 0
-755 -759 0
-755 -760 0
-756 -757 0
-756 -758 0
-756 -759 0
-756 -760 0
-757 -758 0
-757 -759 0
-757 -760 0
-758 -759 0
-758 -760 0
-759 -760 0
761 762 763 764 765 766 767 768 769 770 0
-761 -762 0
-761 -763 0
-761 -764 0
-761 -765 0
-761 -766 0
-761 -767 0
-761 -768 0
-761 -769 0
-761 -770 0
-762 -763 0
-762 -764 0
-762 -765 0
-762 -766 0
-762 -767 0
-762 -768 0
-762 -769 0
-762 -770 0
-763 -764 0
-763 -765 0
-763 -766 0
-763 -767 0
-763 -768 0
-763 -769 0
-763 -770 0
-764 -765 0
-764 -766 0
-764 -767 0
-764 -768 0
-764 -769 0
-764 -770 0
-765 -766 0
-765 -767 0
-765 -768 0
-765 -769 0
-765 -770 0
-766 -767 0
-766 -768 0
-766 -769 0
-766 -770 0
-767 -768 0
-767 -769 0
-767 -770 0
-768 -769 0
-768 -770 0
-769 -770 0
771 772 773 774 775 776 777 778 779 780 0
-771 -772 0
-771 -773 0
-771 -774 0
-771 -775 0
-771 -776 0
-771 -777 0
-771 -778 0
-771 -779 0
-771 -780 0
-772 -773 0
-772 -774 0
-772 -775 0
-772 -776 0
-772 -777 0
-772 -778 0
-772 -779 0
-772 -780 0
-773 -774 0
-773 -775 0
-773 -776 0
-773 -777 0
-773 -778 0
-773 -779 0
-773 -780 0
-774 -775 0
-774 -776 0
-774 -777 0
-774 -778 0
-774 -779 0
-774 -780 0
-775 -776 0
-775 -777 0
-775 -778 0
-775 -779 0
-775 -780 0
-776 -777 0
-776 -778 0
-776 -779 0
-776 -780 0
-777 -778 0
-777 -779 0
-777 -780 0
-778 -779 0
-778 -780 0
-779 -780 0
781 782 783 784 785 786 787 788 789 790 0
-781 -782 0
-781 -783 0
-781 -784 0
-781 -785 0
-781 -786 0
-781 -787 0
-781 -788 0
-781 -789 0
-781 -790 0
-782 -783 0
-782 -784 0
-782 -785 0
-782 -786 0
-782 -787 0
-782 -788 0
-782 -789 0
-782 -790 0
-783 -784 0
-783 -785 0
-783 -786 0
-783 -787 0
-783 -788 0
-783 -789 0
-783 -790 0
-784 -785 0
-784 -786 0
-784 -787 0
-784 -788 0
-784 -789 0
-784 -790 0
-785 -786 0
-785 -787 0
-785 -788 0
-785 -789 0
-785 -790 0
-786 -787 0
-786 -788 0
-786 -789 0
-786 -790 0
-787 -788 0
-787 -789 0
-787 -790 0
-788 -789 0
-788 -790 0
-789 -790 0
791 792 793 794 795 796 797 798 799 800 0
-791 -792 0
-791 -793 0
-791 -794 0
-791 -795 0
-791 -796 0
-791 -797 0
-791 -798 0
-791 -799 0
-791 -800 0
-792 -793 0
-792 -794 0
-792 -795 0
-792 -796 0
-792 -797 0
-792 -798 0
-792 -799 0
-792 -800 0
-793 -794 0
-793 -795 0
-793 -796 0
-793 -797 0
-793 -798 0
-793 -799 0
-793 -800 0
-794 -795 0
-794 -796 0
-794 -797 0
-794 -798 0
-794 -799 0
-794 -800 0
-795 -796 0
-795 -797 0
-795 -798 0
-795 -799 0
-795 -800 0
-796 -797 0
-796 -798 0
-796 -799 0
-796 -800 0
-797 -798 0
-797 -799 0
-797 -800 0
-798 -799 0
-798 -800 0
-799 -800 0
801 802 803 804 805 806 807 808 809 810 0
-801 -802 0
-801 -803 0
-801 -804 0
-801 -805 0
-801 -806 0
-801 -807 0
-801 -808 0
-801 -809 0
-801 -810 0
-802 -803 0
-802 -804 0
-802 -805 0
-802 -806 0
-802 -807 0
-802 -808 0
-802 -809 0
-802 -810 0
-803 -804 0
-803 -805 0
-803 -806 0
-803 -807 0
-803 -808 0
-803 -809 0
-803 -810 0
-804 -805 0
-804 -806 0
-804 -807 0
-804 -808 0
-804 -809 0
-804 -810 0
-805 -806 0
-805 -807 0
-805 -808 0
-805 -809 0
-805 -810 0
-806 -807 0
-806 -808 0
-806 -809 0
-806 -810 0
-807 -808 0
-807 -809 0
-807 -810 0
-808 -809 0
-808 -810 0
-809 -810 0
811 812 813 814 815 816 817 818 819 820 0
-811 -812 0
-811 -813 0
-811 -814 0
-811 -815 0
-811 -816 0
-811 -817 0
-811 -818 0
-811 -819 0
-811 -820 0
-812 -813 0
-812 -814 0
-812 -815 0
-812 -816 0
-812 -817 0
-812 -818 0
-812 -819 0
-812 -820 0
-813 -814 0
-813 -815 0
-813 -816 0
-813 -817 0
-813 -818 0
-813 -819 0
-813 -820 0
-814 -815 0
-814 -816 0
-814 -817 0
-814 -818 0
-814 -819 0
-814 -820 0
-815 -816 0
-815 -817 0
-815 -818 0
-815 -819 0
-815 -820 0
-816 -817 0
-816 -818 0
-816 -819 0
-816 -820 0
-817 -818 0
-817 -819 0
-817 -820 0
-818 -819 0
-818 -820 0
-819 -820 0
821 822 823 824 825 826 827 828 829 830 0
-821 -822 0
-821 -823 0
-821 -824 0
-821 -825 0
-821 -826 0
-821 -827 0
-821 -828 0
-821 -829 0
-821 -830 0
-822 -823 0
-822 -824 0
-822 -825 0
-822 -826 0
-822 -827 0
-822 -828 0
-822 -829 0
-822 -830 0
-823 -824 0
-823 -825 0
-823 -826 0
-823 -827 0
-823 -828 0
-823 -829 0
-823 -830 0
-824 -825 0
-824 -826 0
-824 -827 0
-824 -828 0
-824 -829 0
-824 -830 0
-825 -826 0
-825 -827 0
-825 -828 0
-825 -829 0
-825 -830 0
-826 -827 0
-826 -828 0
-826 -829 0
-826 -830 0
-827 -828 0
-827 -829 0
-827 -830 0
-828 -829 0
-828 -830 0
-829 -830 0
831 832 833 834 835 836 837 838 839 840 0
-831 -832 0
-831 -833 0
-831 -834 0
-831 -835 0
-831 -836 0
-831 -837 0
-831 -838 0
-831 -839 0
-831 -840 0
-832 -833 0
-832 -834 0
-832 -835 0
-832 -836 0
-832 -837 0
-832 -838 0
-832 -839 0
-832 -840 0
-833 -834 0
-833 -835 0
-833 -836 0
-833 -837 0
-833 -838 0
-833 -839 0
-833 -840 0
-834 -835 0
-834 -836 0
-834 -837 0
-834 -838 0
-834 -839 0
-834 -840 0
-835 -836 0
-835 -837 0
-835 -838 0
-835 -839 0
-835 -840 0
-836 -837 0
-836 -838 0
-836 -839 0
-836 -840 0
-837 -838 0
-837 -839 0
-837 -840 0
-838 -839 0
-838 -840 0
-839 -840 0
841 842 843 844 845 846 847 848 849 850 0
-841 -842 0
-841 -843 0
-841 -844 0
-841 -845 0
-841 -846 0
-841 -847 0
-841 -848 0
-841 -849 0
-841 -850 0
-842 -843 0
-842 -844 0
-842 -845 0
-842 -846 0
-842 -847 0
-842 -848 0
-842 -849 0
-842 -850 0
-843 -844 0
-843 -845 0
-843 -846 0
-843 -847 0
-843 -848 0
-843 -849 0
-843 -850 0
-844 -845 0
-844 -846 0
-844 -847 0
-844 -848 0
-844 -849 0
-844 -850 0
-845 -846 0
-845 -847 0
-845 -848 0
-845 -849 0
-845 -850 0
-846 -847 0
-846 -848 0
-846 -849 0
-846 -850 0
-847 -848 0
-847 -849 0
-847 -850 0
-848 -849 0
-848 -850 0
-849 -850 0
851 852 853 854 855 856 857 858 859 860 0
-851 -852 0
-851 -853 0
-851 -854 0
-851 -855 0
-851 -856 0
-851 -857 0
-851 -858 0
-851 -859 0
-851 -860 0
-852 -853 0
-852 -854 0
-852 -855 0
-852 -856 0
-852 -857 0
-852 -858 0
-852 -859 0
-852 -860 0
-853 -854 0
-853 -855 0
-853 -856 0
-853 -857 0
-853 -858 0
-853 -859 0
-853 -860 0
-854 -855 0
-854 -856 0
-854 -857 0
-854 -858 0
-854 -859 0
-854 -860 0
-855 -856 0
-855 -857 0
-855 -858 0
-855 -859 0
-855 -860 0
-856 -857 0
-856 -858 0
-856 -859 0
-856 -860 0
-857 -858 0
-857 -859 0
-857 -860 0
-858 -859 0
-858 -860 0
-859 -860 0
861 862 863 864 865 866 867 868 869 870 0
-861 -862 0
-861 -863 0
-861 -864 0
-861 -865 0
-861 -866 0
-861 -867 0
-861 -868 0
-861 -869 0
-861 -870 0
-862 -863 0
-862 -864 0
-862 -865 0
-862 -866 0
-862 -867 0
-862 -868 0
-862 -869 0
-862 -870 0
-863 -864 0
-863 -865 0
-863 -866 0
-863 -867 0
-863 -868 0
-863 -869 0
-863 -870 0
-864 -865 0
-864 -866 0
-864 -867 0
-864 -868 0
-864 -869 0
-864 -870 0
-865 -866 0
-865 -867 0
-865 -868 0
-865 -869 0
-865 -870 0
-866 -867 0
-866 -868 0
-866 -869 0
-866 -870 0
-867 -868 0
-867 -869 0
-867 -870 0
-868 -869 0
-868 -870 0
-869 -870 0
871 872 873 874 875 876 877 878 879 880 0
-871 -872 0
-871 -873 0
-871 -874 0
-871 -875 0
-871 -876 0
-871 -877 0
-871 -878 0
-871 -879 0
-871 -880 0
-872 -873 0
-872 -874 0
-872 -875 0
-872 -876 0
-872 -877 0
-872 -878 0
-872 -879 0
-872 -880 0
-873 -874 0
-873 -875 0
-873 -876 0
-873 -877 0
-873 -878 0
-873 -879 0
-873 -880 0
-874 -875 0
-874 -876 0
-874 -877 0
-874 -878 0
-874 -879 0
-874 -880 0
-875 -876 0
-875 -877 0
-875 -878 0
-875 -879 0
-875 -880 0
-876 -877 0
-876 -878 0
-876 -879 0
-876 -880 0
-877 -878 0
-877 -879 0
-877 -880 0
-878 -879 0
-878 -880 0
-879 -880 0
881 882 883 884 885 886 887 888 889 890 0
-881 -882 0
-881 -883 0
-881 -884 0
-881 -885 0
-881 -886 0
-881 -887 0
-881 -888 0
-881 -889 0
-881 -890 0
-882 -883 0
-882 -884 0
-882 -885 0
-882 -886 0
-882 -887 0
-882 -888 0
-882 -889 0
-882 -890 0
-883 -884 0
-883 -885 0
-883 -886 0
-883 -887 0
-883 -888 0
-883 -889 0
-883 -890 0
-884 -885 0
-884 -886 0
-884 -887 0
-884 -888 0
-884 -889 0
-884 -890 0
-885 -886 0
-885 -887 0
-885 -888 0
-885 -889 0
-885 -890 0
-886 -887 0
-886 -888 0
-886 -889 0
-886 -890 0
-887 -888 0
-887 -889 0
-887 -890 0
-888 -889 0
-888 -890 0
-889 -890 0
891 892 893 894 895 896 897 898 899 900 0
-891 -892 0
-891 -893 0
-891 -894 0
-891 -895 0
-891 -896 0
-891 -897 0
-891 -898 0
-891 -899 0
-891 -900 0
-892 -893 0
-892 -894 0
-892 -895 0
-892 -896 0
-892 -897 0
-892 -898 0
-892 -899 0
-892 -900 0
-893 -894 0
-893 -895 0
-893 -896 0
-893 -897 0
-893 -898 0
-893 -899 0
-893 -900 0
-894 -895 0
-894 -896 0
-894 -897 0
-894 -898 0
-894 -899 0
-894 -900 0
-895 -896 0
-895 -897 0
-895 -898 0
-895 -899 0
-895 -900 0
-896 -897 0
-896 -898 0
-896 -899 0
-896 -900 0
-897 -898 0
-897 -899 0
-897 -900 0
-898 -899 0
-898 -900 0
-899 -900 0
901 902 903 904 905 906 907 908 909 910 0
-901 -902 0
-901 -903 0
-901 -904 0
-901 -905 0
-901 -906 0
-901 -907 0
-901 -908 0
-901 -909 0
-901 -910 0
-902 -903 0
-902 -904 0
-902 -905 0
-902 -906 0
-902 -907 0
-902 -908 0
-902 -909 0
-902 -910 0
-903 -904 0
-903 -905 0
-903 -906 0
-903 -907 0
-903 -908 0
-903 -909 0
-903 -910 0
-904 -905 0
-904 -906 0
-904 -907 0
-904 -908 0
-904 -909 0
-904 -910 0
-905 -906 0
-905 -907 0
-905 -908 0
-905 -909 0
-905 -910 0
-906 -907 0
-906 -908 0
-906 -909 0
-906 -910 0
-907 -908 0
-907 -909 0
-907 -910 0
-908 -909 0
-908 -910 0
-909 -910 0
911 912 913 914 915 916 917 918 919 920 0
-911 -912 0
-911 -913 0
-911 -914 0
-911 -915 0
-911 -916 0
-911 -917 0
-911 -918 0
-911 -919 0
-911 -920 0
-912 -913 0
-912 -914 0
-912 -915 0
-912 -916 0
-912 -917 0
-912 -918 0
-912 -919 0
-912 -920 0
-913 -914 0
-913 -915 0
-913 -916 0
-913 -917 0
-913 -918 0
-913 -919 0
-913 -920 0
-914 -915 0
-914 -916 0
-914 -917 0
-914 -918 0
-914 -919 0
-914 -920 0
-915 -916 0
-915 -917 0
-915 -918 0
-915 -919 0
-915 -920 0
-916 -917 0
-916 -918 0
-916 -919 0
-916 -920 0
-917 -918 0
-917 -919 0
-917 -920 0
-918 -919 0
-918 -920 0
-919 -920 0
921 922 923 924 925 926 927 928 929 930 0
-921 -922 0
-921 -923 0
-921 -924 0
-921 -925 0
-921 -926 0
-921 -927 0
-921 -928 0
-921 -929 0
-921 -930 0
-922 -923 0
-922 -924 0
-922 -925 0
-922 -926 0
-922 -927 0
-922 -928 0
-922 -929 0
-922 -930 0
-923 -924 0
-923 -925 0
-923 -926 0
-923 -927 0
-923 -928 0
-923 -929 0
-923 -930 0
-924 -925 0
-924 -926 0
-924 -927 0
-924 -928 0
-924 -929 0
-924 -930 0
-925 -926 0
-925 -927 0
-925 -928 0
-925 -929 0
-925 -930 0
-926 -927 0
-926 -928 0
-926 -929 0
-926 -930 0
-927 -928 0
-927 -929 0
-927 -930 0
-928 -929 0
-928 -930 0
-929 -930 0
931 932 933 934 935 936 937 938 939 940 0
-931 -932 0
-931 -933 0
-931 -934 0
-931 -935 0
-931 -936 0
-931 -937 0
-931 -938 0
-931 -939 0
-931 -940 0
-932 -933 0
-932 -934 0
-932 -935 0
-932 -936 0
-932 -937 0
-932 -938 0
-932 -939 0
-932 -940 0
-933 -934 0
-933 -935 0
-933 -936 0
-933 -937 0
-933 -938 0
-933 -939 0
-933 -940 0
-934 -935 0
-934 -936 0
-934 -937 0
-934 -938 0
-934 -939 0
-934 -940 0
-935 -936 0
-935 -937 0
-935 -938 0
-935 -939 0
-935 -940 0
-936 -937 0
-936 -938 0
-936 -939 0
-936 -940 0
-937 -938 0
-937 -939 0
-937 -940 0
-938 -939 0
-938 -940 0
-939 -940 0
941 942 943 944 945 946 947 948 949 950 0
-941 -942 0
-941 -943 0
-941 -944 0
-941 -945 0
-941 -946 0
-941 -947 0
-941 -948 0
-941 -949 0
-941 -950 0
-942 -943 0
-942 -944 0
-942 -945 0
-942 -946 0
-942 -947 0
-942 -948 0
-942 -949 0
-942 -950 0
-943 -944 0
-943 -945 0
-943 -946 0
-943 -947 0
-943 -948 0
-943 -949 0
-943 -950 0
-944 -945 0
-944 -946 0
-944 -947 0
-944 -948 0
-944 -949 0
-944 -950 0
-945 -946 0
-945 -947 0
-945 -948 0
-945 -949 0
-945 -950 0
-946 -947 0
-946 -948 0
-946 -949 0
-946 -950 0
-947 -948 0
-947 -949 0
-947 -950 0
-948 -949 0
-948 -950 0
-949 -950 0
951 952 953 954 955 956 957 958 959 960 0
-951 -952 0
-951 -953 0
-951 -954 0
-951 -955 0
-951 -956 0
-951 -957 0
-951 -958 0
-951 -959 0
-951 -960 0
-952 -953 0
-952 -954 0
-952 -955 0
-952 -956 0
-952 -957 0
-952 -958 0
-952 -959 0
-952 -960 0
-953 -954 0
-953 -955 0
-953 -956 0
-953 -957 0
-953 -958 0
-953 -959 0
-953 -960 0
-954 -955 0
-954 -956 0
-954 -957 0
-954 -958 0
-954 -959 0
-954 -960 0
-955 -956 0
-955 -957 0
-955 -958 0
-955 -959 0
-955 -960 0
-956 -957 0
-956 -958 0
-956 -959 0
-956 -960 0
-957 -958 0
-957 -959 0
-957 -960 0
-958 -959 0
-958 -960 0
-959 -960 0
961 962 963 964 965 966 967 968 969 970 0
-961 -962 0
-961 -963 0
-961 -964 0
-961 -965 0
-961 -966 0
-961 -967 0
-961 -968 0
-961 -969 0
-961 -970 0
-962 -963 0
-962 -964 0
-962 -965 0
-962 -966 0
-962 -967 0
-962 -968 0
-962 -969 0
-962 -970 0
-963 -964 0
-963 -965 0
-963 -966 0
-963 -967 0
-963 -968 0
-963 -969 0
-963 -970 0
-964 -965 0
-964 -966 0
-964 -967 0
-964 -968 0
-964 -969 0
-964 -970 0
-965 -966 0
-965 -967 0
-965 -968 0
-965 -969 0
-965 -970 0
-966 -967 0
-966 -968 0
-966 -969 0
-966 -970 0
-967 -968 0
-967 -969 0
-967 -970 0
-968 -969 0
-968 -970 0
-969 -970 0
971 972 973 974 975 976 977 978 979 980 0
-971 -972 0
-971 -973 0
-971 -974 0
-971 -975 0
-971 -976 0
-971 -977 0
-971 -978 0
-971 -979 0
-971 -980 0
-972 -973 0
-972 -974 0
-972 -975 0
-972 -976 0
-972 -977 0
-972 -978 0
-972 -979 0
-972 -980 0
-973 -974 0
-973 -975 0
-973 -976 0
-973 -977 0
-973 -978 0
-973 -979 0
-973 -980 0
-974 -975 0
-974 -976 0
-974 -977 0
-974 -978 0
-974 -979 0
-974 -980 0
-975 -976 0
-975 -977 0
-975 -978 0
-975 -979 0
-975 -980 0
-976 -977 0
-976 -978 0
-976 -979 0
-976 -980 0
-977 -978 0
-977 -979 0
-977 -980 0
-978 -979 0
-978 -980 0
-979 -980 0
981 982 983 984 985 986 987 988 989 990 0
-981 -982 0
-981 -983 0
-981 -984 0
-981 -985 0
-981 -986 0
-981 -987 0
-981 -988 0
-981 -989 0
-981 -990 0
-982 -983 0
-982 -984 0
-982 -985 0
-982 -986 0
-982 -987 0
-982 -988 0
-982 -989 0
-982 -990 0
-983 -984 0
-983 -985 0
-983 -986 0
-983 -987 0
-983 -988 0
-983 -989 0
-983 -990 0
-984 -985 0
-984 -986 0
-984 -987 0
-984 -988 0
-984 -989 0
-984 -990 0
-985 -986 0
-985 -987 0
-985 -988 0
-985 -989 0
-985 -990 0
-986 -987 0
-986 -988 0
-986 -989 0
-986 -990 0
-987 -988 0
-987 -989 0
-987 -990 0
-988 -989 0
-988 -990 0
-989 -990 0
991 992 993 994 995 996 997 998 999 1000 0
-991 -992 0
-991 -993 0
-991 -994 0
-991 -995 0
-991 -996 0
-991 -997 0
-991 -998 0
-991 -999 0
-991 -1000 0
-992 -993 0
-992 -994 0
-992 -995 0
-992 -996 0
-992 -997 0
-992 -998 0
-992 -999 0
-992 -1000 0
-993 -994 0
-993 -995 0
-993 -996 0
-993 -997 0
-993 -998 0
-993 -999 0
-993 -1000 0
-994 -995 0
-994 -996 0
-994 -997 0
-994 -998 0
-994 -999 0
-994 -1000 0
-995 -996 0
-995 -997 0
-995 -998 0
-995 -999 0
-995 -1000 0
-996 -997 0
-996 -998 0
-996 -999 0
-996 -1000 0
-997 -998 0
-997 -999 0
-997 -1000 0
-998 -999 0
-998 -1000 0
-999 -1000 0
1001 1002 1003 1004 1005 1006 1007 1008 1009 1010 0
-1001 -1002 0
-1001 -1003 0
-1001 -1004 0
-1001 -1005 0
-1001 -1006 0
-1001 -1007 0
-1001 -1008 0
-1001 -1009 0
-1001 -1010 0
-1002 -1003 0
-1002 -1004 0
-1002 -1005 0
-1002 -1006 0
-1002 -1007 0
-1002 -1008 0
-1002 -1009 0
-1002 -1010 0
-1003 -1004 0
-1003 -1005 0
-1003 -1006 0
-1003 -1007 0
-1003 -1008 0
-1003 -1009 0
-1003 -1010 0
-1004 -1005 0
-1004 -1006 0
-1004 -1007 0
-1004 -1008 0
-1004 -1009 0
-1004 -1010 0
-1005 -1006 0
-1005 -1007 0
-1005 -1008 0
-1005 -1009 0
-1005 -1010 0
-1006 -1007 0
-1006 -1008 0
-1006 -1009 0
-1006 -1010 0
-1007 -1008 0
-1007 -1009 0
-1007 -1010 0
-1008 -1009 0
-1008 -1010 0
-1009 -1010 0
1011 1012 1013 1014 1015 1016 1017 1018 1019 1020 0
-1011 -1012 0
-1011 -1013 0
-1011 -1014 0
-1011 -1015 0
-1011 -1016 0
-1011 -1017 0
-1011 -1018 0
-1011 -1019 0
-1011 -1020 0
-1012 -1013 0
-1012 -1014 0
-1012 -1015 0
-1012 -1016 0
-1012 -1017 0
-1012 -1018 0
-1012 -1019 0
-1012 -1020 0
-1013 -1014 0
-1013 -1015 0
-1013 -1016 0
-1013 -1017 0
-1013 -1018 0
-1013 -1019 0
-1013 -1020 0
-1014 -1015 0
-1014 -1016 0
-1014 -1017 0
-1014 -1018 0
-1014 -1019 0
-1014 -1020 0
-1015 -1016 0
-1015 -1017 0
-1015 -1018 0
-1015 -1019 0
-1015 -1020 0
-1016 -1017 0
-1016 -1018 0
-1016 -1019 0
-1016 -1020 0
-1017 -1018 0
-1017 -1019 0
-1017 -1020 0
-1018 -1019 0
-1018 -1020 0
-1019 -1020 0
1021 1022 1023 1024 1025 1026 1027 1028 1029 1030 0
-1021 -1022 0
-1021 -1023 0
-1021 -1024 0
-1021 -1025 0
-1021 -1026 0
-1021 -1027 0
-1021 -1028 0
-1021 -1029 0
-1021 -1030 0
-1022 -1023 0
-1022 -1024 0
-1022 -1025 0
-1022 -1026 0
-1022 -1027 0
-1022 -1028 0
-1022 -1029 0
-1022 -1030 0
-1023 -1024 0
-1023 -1025 0
-1023 -1026 0
-1023 -1027 0
-1023 -1028 0
-1023 -1029 0
-1023 -1030 0
-1024 -1025 0
-1024 -1026 0
-1024 -1027 0
-1024 -1028 0
-1024 -1029 0
-1024 -1030 0
-1025 -1026 0
-1025 -1027 0
-1025 -1028 0
-1025 -1029 0
-1025 -1030 0
-1026 -1027 0
-1026 -1028 0
-1026 -1029 0
-1026 -1030 0
-1027 -1028 0
-1027 -1029 0
-1027 -1030 0
-1028 -1029 0
-1028 -1030 0
-1029 -1030 0
1031 1032 1033 1034 1035 1036 1037 1038 1039 1040 0
-1031 -1032 0
-1031 -1033 0
-1031 -1034 0
-1031 -1035 0
-1031 -1036 0
-1031 -1037 0
-1031 -1038 0
-1031 -1039 0
-1031 -1040 0
-1032 -1033 0
-1032 -1034 0
-1032 -1035 0
-1032 -1036 0
-1032 -1037 0
-1032 -1038 0
-1032 -1039 0
-1032 -1040 0
-1033 -1034 0
-1033 -1035 0
-1033 -1036 0
-1033 -1037 0
-1033 -1038 0
-1033 -1039 0
-1033 -1040 0
-1034 -1035 0
-1034 -1036 0
-1034 -1037 0
-1034 -1038 0
-1034 -1039 0
-1034 -1040 0
-1035 -1036 0
-1035 -1037 0
-1035 -1038 0
-1035 -1039 0
-1035 -1040 0
-1036 -1037 0
-1036 -1038 0
-1036 -1039 0
-1036 -1040 0
-1037 -1038 0
-1037 -1039 0
-1037 -1040 0
-1038 -1039 0
-1038 -1040 0
-1039 -1040 0
1041 1042 1043 1044 1045 1046 1047 1048 1049 1050 0
-1041 -1042 0
-1041 -1043 0
-1041 -1044 0
-1041 -1045 0
-1041 -1046 0
-1041 -1047 0
-1041 -1048 0
-1041 -1049 0
-1041 -1050 0
-1042 -1043 0
-1042 -1044 0
-1042 -1045 0
-1042 -1046 0
-1042 -1047 0
-1042 -1048 0
-1042 -1049 0
-1042 -1050 0
-1043 -1044 0
-1043 -1045 0
-1043 -1046 0
-1043 -1047 0
-1043 -1048 0
-1043 -1049 0
-1043 -1050 0
-1044 -1045 0
-1044 -1046 0
-1044 -1047 0
-1044 -1048 0
-1044 -1049 0
-1044 -1050 0
-1045 -1046 0
-1045 -1047 0
-1045 -1048 0
-1045 -1049 0
-1045 -1050 0
-1046 -1047 0
-1046 -1048 0
-1046 -1049 0
-1046 -1050 0
-1047 -1048 0
-1047 -1049 0
-1047 -1050 0
-1048 -1049 0
-1048 -1050 0
-1049 -1050 0
1051 1052 1053 1054 1055 1056 1057 1058 1059 1060 0
-1051 -1052 0
-1051 -1053 0
-1051 -1054 0
-1051 -1055 0
-1051 -1056 0
-1051 -1057 0
-1051 -1058 0
-1051 -1059 0
-1051 -1060 0
-1052 -1053 0
-1052 -1054 0
-1052 -1055 0
-1052 -1056 0
-1052 -1057 0
-1052 -1058 0
-1052 -1059 0
-1052 -1060 0
-1053 -1054 0
-1053 -1055 0
-1053 -1056 0
-1053 -1057 0
-1053 -1058 0
-1053 -1059 0
-1053 -1060 0
-1054 -1055 0
-1054 -1056 0
-1054 -1057 0
-1054 -1058 0
-1054 -1059 0
-1054 -1060 0
-1055 -1056 0
-1055 -1057 0
-1055 -1058 0
-1055 -1059 0
-1055 -1060 0
-1056 -1057 0
-1056 -1058 0
-1056 -1059 0
-1056 -1060 0
-1057 -1058 0
-1057 -1059 0
-1057 -1060 0
-1058 -1059 0
-1058 -1060 0
-1059 -1060 0
1061 1062 1063 1064 1065 1066 1067 1068 1069 1070 0
-1061 -1062 0
-1061 -1063 0
-1061 -1064 0
-1061 -1065 0
-1061 -1066 0
-1061 -1067 0
-1061 -1068 0
-1061 -1069 0
-1061 -1070 0
-1062 -1063 0
-1062 -1064 0
-1062 -1065 0
-1062 -1066 0
-1062 -1067 0
-1062 -1068 0
-1062 -1069 0
-1062 -1070 0
-1063 -1064 0
-1063 -1065 0
-1063 -1066 0
-1063 -1067 0
-1063 -1068 0
-1063 -1069 0
-1063 -1070 0
-1064 -1065 0
-1064 -1066 0
-1064 -1067 0
-1064 -1068 0
-1064 -1069 0
-1064 -1070 0
-1065 -1066 0
-1065 -1067 0
-1065 -1068 0
-1065 -1069 0
-1065 -1070 0
-1066 -1067 0
-1066 -1068 0
-1066 -1069 0
-1066 -1070 0
-1067 -1068 0
-1067 -1069 0
-1067 -1070 0
-1068 -1069 0
-1068 -1070 0
-1069 -1070 0
1071 1072 1073 1074 1075 1076 1077 1078 1079 1080 0
-1071 -1072 0
-1071 -1073 0
-1071 -1074 0
-1071 -1075 0
-1071 -1076 0
-1071 -1077 0
-1071 -1078 0
-1071 -1079 0
-1071 -1080 0
-1072 -1073 0
-1072 -1074 0
-1072 -1075 0
-1072 -1076 0
-1072 -1077 0
-1072 -1078 0
-1072 -1079 0
-1072 -1080 0
-1073 -1074 0
-1073 -1075 0
-1073 -1076 0
-1073 -1077 0
-1073 -1078 0
-1073 -1079 0
-1073 -1080 0
-1074 -1075 0
-1074 -1076 0
-1074 -1077 0
-1074 -1078 0
-1074 -1079 0
-1074 -1080 0
-1075 -1076 0
-1075 -1077 0
-1075 -1078 0
-1075 -1079 0
-1075 -1080 0
-1076 -1077 0
-1076 -1078 0
-1076 -1079 0
-1076 -1080 0
-1077 -1078 0
-1077 -1079 0
-1077 -1080 0
-1078 -1079 0
-1078 -1080 0
-1079 -1080 0
1081 1082 1083 1084 1085 1086 1087 1088 1089 1090 0
-1081 -1082 0
-1081 -1083 0
-1081 -1084 0
-1081 -1085 0
-1081 -1086 0
-1081 -1087 0
-1081 -1088 0
-1081 -1089 0
-1081 -1090 0
-1082 -1083 0
-1082 -1084 0
-1082 -1085 0
-1082 -1086 0
-1082 -1087 0
-1082 -1088 0
-1082 -1089 0
-1082 -1090 0
-1083 -1084 0
-1083 -1085 0
-1083 -1086 0
-1083 -1087 0
-1083 -1088 0
-1083 -1089 0
-1083 -1090 0
-1084 -1085 0
-1084 -1086 0
-1084 -1087 0
-1084 -1088 0
-1084 -1089 0
-1084 -1090 0
-1085 -1086 0
-1085 -1087 0
-1085 -1088 0
-1085 -1089 0
-1085 -1090 0
-1086 -1087 0
-1086 -1088 0
-1086 -1089 0
-1086 -1090 0
-1087 -1088 0
-1087 -1089 0
-1087 -1090 0
-1088 -1089 0
-1088 -1090 0
-1089 -1090 0
1091 1092 1093 1094 1095 1096 1097 1098 1099 1100 0
-1091 -1092 0
-1091 -1093 0
-1091 -1094 0
-1091 -1095 0
-1091 -1096 0
-1091 -1097 0
-1091 -1098 0
-1091 -1099 0
-1091 -1100 0
-1092 -1093 0
-1092 -1094 0
-1092 -1095 0
-1092 -1096 0
-1092 -1097 0
-1092 -1098 0
-1092 -1099 0
-1092 -1100 0
-1093 -1094 0
-1093 -1095 0
-1093 -1096 0
-1093 -1097 0
-1093 -1098 0
-1093 -1099 0
-1093 -1100 0
-1094 -1095 0
-1094 -1096 0
-1094 -1097 0
-1094 -1098 0
-1094 -1099 0
-1094 -1100 0
-1095 -1096 0
-1095 -1097 0
-1095 -1098 0
-1095 -1099 0
-1095 -1100 0
-1096 -1097 0
-1096 -1098 0
-1096 -1099 0
-1096 -1100 0
-1097 -1098 0
-1097 -1099 0
-1097 -1100 0
-1098 -1099 0
-1098 -1100 0
-1099 -1100 0
1101 1102 1103 1104 1105 1106 1107 1108 1109 1110 0
-1101 -1102 0
-1101 -1103 0
-1101 -1104 0
-1101 -1105 0
-1101 -1106 0
-1101 -1107 0
-1101 -1108 0
-1101 -1109 0
-1101 -1110 0
-1102 -1103 0
-1102 -1104 0
-1102 -1105 0
-1102 -1106 0
-1102 -1107 0
-1102 -1108 0
-1102 -1109 0
-1102 -1110 0
-1103 -1104 0
-1103 -1105 0
-1103 -1106 0
-1103 -1107 0
-1103 -1108 0
-1103 -1109 0
-1103 -1110 0
-1104 -1105 0
-1104 -1106 0
-1104 -1107 0
-1104 -1108 0
-1104 -1109 0
-1104 -1110 0
-1105 -1106 0
-1105 -1107 0
-1105 -1108 0
-1105 -1109 0
-1105 -1110 0
-1106 -1107 0
-1106 -1108 0
-1106 -1109 0
-1106 -1110 0
-1107 -1108 0
-1107 -1109 0
-1107 -1110 0
-1108 -1109 0
-1108 -1110 0
-1109 -1110 0
1111 1112 1113 1114 1115 1116 1117 1118 1119 1120 0
-1111 -1112 0
-1111 -1113 0
-1111 -1114 0
-1111 -1115 0
-1111 -1116 0
-1111 -1117 0
-1111 -1118 0
-1111 -1119 0
-1111 -1120 0
-1112 -1113 0
-1112 -1114 0
-1112 -1115 0
-1112 -1116 0
-1112 -1117 0
-1112 -1118 0
-1112 -1119 0
-1112 -1120 0
-1113 -1114 0
-1113 -1115 0
-1113 -1116 0
-1113 -1117 0
-1113 -1118 0
-1113 -1119 0
-1113 -1120 0
-1114 -1115 0
-1114 -1116 0
-1114 -1117 0
-1114 -1118 0
-1114 -1119 0
-1114 -1120 0
-1115 -1116 0
-1115 -1117 0
-1115 -1118 0
-1115 -1119 0
-1115 -1120 0
-1116 -1117 0
-1116 -1118 0
-1116 -1119 0
-1116 -1120 0
-1117 -1118 0
-1117 -1119 0
-1117 -1120 0
-1118 -1119 0
-1118 -1120 0
-1119 -1120 0
1121 1122 1123 1124 1125 1126 1127 1128 1129 1130 0
-1121 -1122 0
-1121 -1123 0
-1121 -1124 0
-1121 -1125 0
-1121 -1126 0
-1121 -1127 0
-1121 -1128 0
-1121 -1129 0
-1121 -1130 0
-1122 -1123 0
-1122 -1124 0
-1122 -1125 0
-1122 -1126 0
-1122 -1127 0
-1122 -1128 0
-1122 -1129 0
-1122 -1130 0
-1123 -1124 0
-1123 -1125 0
-1123 -1126 0
-1123 -1127 0
-1123 -1128 0
-1123 -1129 0
-1123 -1130 0
-1124 -1125 0
-1124 -1126 0
-1124 -1127 0
-1124 -1128 0
-1124 -1129 0
-1124 -1130 0
-1125 -1126 0
-1125 -1127 0
-1125 -1128 0
-1125 -1129 0
-1125 -1130 0
-1126 -1127 0
-1126 -1128 0
-1126 -1129 0
-1126 -1130 0
-1127 -1128 0
-1127 -1129 0
-1127 -1130 0
-1128 -1129 0
-1128 -1130 0
-1129 -1130 0
1131 1132 1133 1134 1135 1136 1137 1138 1139 1140 0
-1131 -1132 0
-1131 -1133 0
-1131 -1134 0
-1131 -1135 0
-1131 -1136 0
-1131 -1137 0
-1131 -1138 0
-1131 -1139 0
-1131 -1140 0
-1132 -1133 0
-1132 -1134 0
-1132 -1135 0
-1132 -1136 0
-1132 -1137 0
-1132 -1138 0
-1132 -1139 0
-1132 -1140 0
-1133 -1134 0
-1133 -1135 0
-1133 -1136 0
-1133 -1137 0
-1133 -1138 0
-1133 -1139 0
-1133 -1140 0
-1134 -1135 0
-1134 -1136 0
-1134 -1137 0
-1134 -1138 0
-1134 -1139 0
-1134 -1140 0
-1135 -1136 0
-1135 -1137 0
-1135 -1138 0
-1135 -1139 0
-1135 -1140 0
-1136 -1137 0
-1136 -1138 0
-1136 -1139 0
-1136 -1140 0
-1137 -1138 0
-1137 -1139 0
-1137 -1140 0
-1138 -1139 0
-1138 -1140 0
-1139 -1140 0
1141 1142 1143 1144 1145 1146 1147 1148 1149 1150 0
-1141 -1142 0
-1141 -1143 0
-1141 -1144 0
-1141 -1145 0
-1141 -1146 0
-1141 -1147 0
-1141 -1148 0
-1141 -1149 0
-1141 -1150 0
-1142 -1143 0
-1142 -1144 0
-1142 -1145 0
-1142 -1146 0
-1142 -1147 0
-1142 -1148 0
-1142 -1149 0
-1142 -1150 0
-1143 -1144 0
-1143 -1145 0
-1143 -1146 0
-1143 -1147 0
-1143 -1148 0
-1143 -1149 0
-1143 -1150 0
-1144 -1145 0
-1144 -1146 0
-1144 -1147 0
-1144 -1148 0
-1144 -1149 0
-1144 -1150 0
-1145 -1146 0
-1145 -1147 0
-1145 -1148 0
-1145 -1149 0
-1145 -1150 0
-1146 -1147 0
-1146 -1148 0
-1146 -1149 0
-1146 -1150 0
-1147 -1148 0
-1147 -1149 0
-1147 -1150 0
-1148 -1149 0
-1148 -1150 0
-1149 -1150 0
1151 1152 1153 1154 1155 1156 1157 1158 1159 1160 0
-1151 -1152 0
-1151 -1153 0
-1151 -1154 0
-1151 -1155 0
-1151 -1156 0
-1151 -1157 0
-1151 -1158 0
-1151 -1159 0
-1151 -1160 0
-1152 -1153 0
-1152 -1154 0
-1152 -1155 0
-1152 -1156 0
-1152 -1157 0
-1152 -1158 0
-1152 -1159 0
-1152 -1160 0
-1153 -1154 0
-1153 -1155 0
-1153 -1156 0
-1153 -1157 0
-1153 -1158 0
-1153 -1159 0
-1153 -1160 0
-1154 -1155 0
-1154 -1156 0
-1154 -1157 0
-1154 -1158 0
-1154 -1159 0
-1154 -1160 0
-1155 -1156 0
-1155 -1157 0
-1155 -1158 0
-1155 -1159 0
-1155 -1160 0
-1156 -1157 0
-1156 -1158 0
-1156 -1159 0
-1156 -1160 0
-1157 -1158 0
-1157 -1159 0
-1157 -1160 0
-1158 -1159 0
-1158 -1160 0
-1159 -1160 0
1161 1162 1163 1164 1165 1166 1167 1168 1169 1170 0
-1161 -1162 0
-1161 -1163 0
-1161 -1164 0
-1161 -1165 0
-1161 -1166 0
-1161 -1167 0
-1161 -1168 0
-1161 -1169 0
-1161 -1170 0
-1162 -1163 0
-1162 -1164 0
-1162 -1165 0
-1162 -1166 0
-1162 -1167 0
-1162 -1168 0
-1162 -1169 0
-1162 -1170 0
-1163 -1164 0
-1163 -1165 0
-1163 -1166 0
-1163 -1167 0
-1163 -1168 0
-1163 -1169 0
-1163 -1170 0
-1164 -1165 0
-1164 -1166 0
-1164 -1167 0
-1164 -1168 0
-1164 -1169 0
-1164 -1170 0
-1165 -1166 0
-1165 -1167 0
-1165 -1168 0
-1165 -1169 0
-1165 -1170 0
-1166 -1167 0
-1166 -1168 0
-1166 -1169 0
-1166 -1170 0
-1167 -1168 0
-1167 -1169 0
-1167 -1170 0
-1168 -1169 0
-1168 -1170 0
-1169 -1170 0
1171 1172 1173 1174 1175 1176 1177 1178 1179 1180 0
-1171 -1172 0
-1171 -1173 0
-1171 -1174 0
-1171 -1175 0
-1171 -1176 0
-1171 -1177 0
-1171 -1178 0
-1171 -1179 0
-1171 -1180 0
-1172 -1173 0
-1172 -1174 0
-1172 -1175 0
-1172 -1176 0
-1172 -1177 0
-1172 -1178 0
-1172 -1179 0
-1172 -1180 0
-1173 -1174 0
-1173 -1175 0
-1173 -1176 0
-1173 -1177 0
-1173 -1178 0
-1173 -1179 0
-1173 -1180 0
-1174 -1175 0
-1174 -1176 0
-1174 -1177 0
-1174 -1178 0
-1174 -1179 0
-1174 -1180 0
-1175 -1176 0
-1175 -1177 0
-1175 -1178 0
-1175 -1179 0
-1175 -1180 0
-1176 -1177 0
-1176 -1178 0
-1176 -1179 0
-1176 -1180 0
-1177 -1178 0
-1177 -1179 0
-1177 -1180 0
-1178 -1179 0
-1178 -1180 0
-1179 -1180 0
1181 1182 1183 1184 1185 1186 1187 1188 1189 1190 0
-1181 -1182 0
-1181 -1183 0
-1181 -1184 0
-1181 -1185 0
-1181 -1186 0
-1181 -1187 0
-1181 -1188 0
-1181 -1189 0
-1181 -1190 0
-1182 -1183 0
-1182 -1184 0
-1182 -1185 0
-1182 -1186 0
-1182 -1187 0
-1182 -1188 0
-1182 -1189 0
-1182 -1190 0
-1183 -1184 0
-1183 -1185 0
-1183 -1186 0
-1183 -1187 0
-1183 -1188 0
-1183 -1189 0
-1183 -1190 0
-1184 -1185 0
-1184 -1186 0
-1184 -1187 0
-1184 -1188 0
-1184 -1189 0
-1184 -1190 0
-1185 -1186 0
-1185 -1187 0
-1185 -1188 0
-1185 -1189 0
-1185 -1190 0
-1186 -1187 0
-1186 -1188 0
-1186 -1189 0
-1186 -1190 0
-1187 -1188 0
-1187 -1189 0
-1187 -1190 0
-1188 -1189 0
-1188 -1190 0
-1189 -1190 0
1191 1192 1193 1194 1195 1196 1197 1198 1199 1200 0
-1191 -1192 0
-1191 -1193 0
-1191 -1194 0
-1191 -1195 0
-1191 -1196 0
-1191 -1197 0
-1191 -1198 0
-1191 -1199 0
-1191 -1200 0
-1192 -1193 0
-1192 -1194 0
-1192 -1195 0
-1192 -1196 0
-1192 -1197 0
-1192 -1198 0
-1192 -1199 0
-1192 -1200 0
-1193 -1194 0
-1193 -1195 0
-1193 -1196 0
-1193 -1197 0
-1193 -1198 0
-1193 -1199 0
-1193 -1200 0
-1194 -1195 0
-1194 -1196 0
-1194 -1197 0
-1194 -1198 0
-1194 -1199 0
-1194 -1200 0
-1195 -1196 0
-1195 -1197 0
-1195 -1198 0
-1195 -1199 0
-1195 -1200 0
-1196 -1197 0
-1196 -1198 0
-1196 -1199 0
-1196 -1200 0
-1197 -1198 0
-1197 -1199 0
-1197 -1200 0
-1198 -1199 0
-1198 -1200 0
-1199 -1200 0
1201 1202 1203 1204 1205 1206 1207 1208 1209 1210 0
-1201 -1202 0
-1201 -1203 0
-1201 -1204 0
-1201 -1205 0
-1201 -1206 0
-1201 -1207 0
-1201 -1208 0
-1201 -1209 0
-1201 -1210 0
-1202 -1203 0
-1202 -1204 0
-1202 -1205 0
-1202 -1206 0
-1202 -1207 0
-1202 -1208 0
-1202 -1209 0
-1202 -1210 0
-1203 -1204 0
-1203 -1205 0
-1203 -1206 0
-1203 -1207 0
-1203 -1208 0
-1203 -1209 0
-1203 -1210 0
-1204 -1205 0
-1204 -1206 0
-1204 -1207 0
-1204 -1208 0
-1204 -1209 0
-1204 -1210 0
-1205 -1206 0
-1205 -1207 0
-1205 -1208 0
-1205 -1209 0
-1205 -1210 0
-1206 -1207 0
-1206 -1208 0
-1206 -1209 0
-1206 -1210 0
-1207 -1208 0
-1207 -1209 0
-1207 -1210 0
-1208 -1209 0
-1208 -1210 0
-1209 -1210 0
1211 1212 1213 1214 1215 1216 1217 1218 1219 1220 0
-1211 -1212 0
-1211 -1213 0
-1211 -1214 0
-1211 -1215 0
-1211 -1216 0
-1211 -1217 0
-1211 -1218 0
-1211 -1219 0
-1211 -1220 0
-1212 -1213 0
-1212 -1214 0
-1212 -1215 0
-1212 -1216 0
-1212 -1217 0
-1212 -1218 0
-1212 -1219 0
-1212 -1220 0
-1213 -1214 0
-1213 -1215 0
-1213 -1216 0
-1213 -1217 0
-1213 -1218 0
-1213 -1219 0
-1213 -1220 0
-1214 -1215 0
-1214 -1216 0
-1214 -1217 0
-1214 -1218 0
-1214 -1219 0
-1214 -1220 0
-1215 -1216 0
-1215 -1217 0
-1215 -1218 0
-1215 -1219 0
-1215 -1220 0
-1216 -1217 0
-1216 -1218 0
-1216 -1219 0
-1216 -1220 0
-1217 -1218 0
-1217 -1219 0
-1217 -1220 0
-1218 -1219 0
-1218 -1220 0
-1219 -1220 0
1221 1222 1223 1224 1225 1226 1227 1228 1229 1230 0
-1221 -1222 0
-1221 -1223 0
-1221 -1224 0
-1221 -1225 0
-1221 -1226 0
-1221 -1227 0
-1221 -1228 0
-1221 -1229 0
-1221 -1230 0
-1222 -1223 0
-1222 -1224 0
-1222 -1225 0
-1222 -1226 0
-1222 -1227 0
-1222 -1228 0
-1222 -1229 0
-1222 -1230 0
-1223 -1224 0
-1223 -1225 0
-1223 -1226 0
-1223 -1227 0
-1223 -1228 0
-1223 -1229 0
-1223 -1230 0
-1224 -1225 0
-1224 -1226 0
-1224 -1227 0
-1224 -1228 0
-1224 -1229 0
-1224 -1230 0
-1225 -1226 0
-1225 -1227 0
-1225 -1228 0
-1225 -1229 0
-1225 -1230 0
-1226 -1227 0
-1226 -1228 0
-1226 -1229 0
-1226 -1230 0
-1227 -1228 0
-1227 -1229 0
-1227 -1230 0
-1228 -1229 0
-1228 -1230 0
-1229 -1230 0
1231 1232 1233 1234 1235 1236 1237 1238 1239 1240 0
-1231 -1232 0
-1231 -1233 0
-1231 -1234 0
-1231 -1235 0
-1231 -1236 0
-1231 -1237 0
-1231 -1238 0
-1231 -1239 0
-1231 -1240 0
-1232 -1233 0
-1232 -1234 0
-1232 -1235 0
-1232 -1236 0
-1232 -1237 0
-1232 -1238 0
-1232 -1239 0
-1232 -1240 0
-1233 -1234 0
-1233 -1235 0
-1233 -1236 0
-1233 -1237 0
-1233 -1238 0
-1233 -1239 0
-1233 -1240 0
-1234 -1235 0
-1234 -1236 0
-1234 -1237 0
-1234 -1238 0
-1234 -1239 0
-1234 -1240 0
-1235 -1236 0
-1235 -1237 0
-1235 -1238 0
-1235 -1239 0
-1235 -1240 0
-1236 -1237 0
-1236 -1238 0
-1236 -1239 0
-1236 -1240 0
-1237 -1238 0
-1237 -1239 0
-1237 -1240 0
-1238 -1239 0
-1238 -1240 0
-1239 -1240 0
1241 1242 1243 1244 1245 1246 1247 1248 1249 1250 0
-1241 -1242 0
-1241 -1243 0
-1241 -1244 0
-1241 -1245 0
-1241 -1246 0
-1241 -1247 0
-1241 -1248 0
-1241 -1249 0
-1241 -1250 0
-1242 -1243 0
-1242 -1244 0
-1242 -1245 0
-1242 -1246 0
-1242 -1247 0
-1242 -1248 0
-1242 -1249 0
-1242 -1250 0
-1243 -1244 0
-1243 -1245 0
-1243 -1246 0
-1243 -1247 0
-1243 -1248 0
-1243 -1249 0
-1243 -1250 0
-1244 -1245 0
-1244 -1246 0
-1244 -1247 0
-1244 -1248 0
-1244 -1249 0
-1244 -1250 0
-1245 -1246 0
-1245 -1247 0
-1245 -1248 0
-1245 -1249 0
-1245 -1250 0
-1246 -1247 0
-1246 -1248 0
-1246 -1249 0
-1246 -1250 0
-1247 -1248 0
-1247 -1249 0
-1247 -1250 0
-1248 -1249 0
-1248 -1250 0
-1249 -1250 0
1251 1252 1253 1254 1255 1256 1257 1258 1259 1260 0
-1251 -1252 0
-1251 -1253 0
-1251 -1254 0
-1251 -1255 0
-1251 -1256 0
-1251 -1257 0
-1251 -1258 0
-1251 -1259 0
-1251 -1260 0
-1252 -1253 0
-1252 -1254 0
-1252 -1255 0
-1252 -1256 0
-1252 -1257 0
-1252 -1258 0
-1252 -1259 0
-1252 -1260 0
-1253 -1254 0
-1253 -1255 0
-1253 -1256 0
-1253 -1257 0
-1253 -1258 0
-1253 -1259 0
-1253 -1260 0
-1254 -1255 0
-1254 -1256 0
-1254 -1257 0
-1254 -1258 0
-1254 -1259 0
-1254 -1260 0
-1255 -1256 0
-1255 -1257 0
-1255 -1258 0
-1255 -1259 0
-1255 -1260 0
-1256 -1257 0
-1256 -1258 0
-1256 -1259 0
-1256 -1260 0
-1257 -1258 0
-1257 -1259 0
-1257 -1260 0
-1258 -1259 0
-1258 -1260 0
-1259 -1260 0
1261 1262 1263 1264 1265 1266 1267 1268 1269 1270 0
-1261 -1262 0
-1261 -1263 0
-1261 -1264 0
-1261 -1265 0
-1261 -1266 0
-1261 -1267 0
-1261 -1268 0
-1261 -1269 0
-1261 -1270 0
-1262 -1263 0
-1262 -1264 0
-1262 -1265 0
-1262 -1266 0
-1262 -1267 0
-1262 -1268 0
-1262 -1269 0
-1262 -1270 0
-1263 -1264 0
-1263 -1265 0
-1263 -1266 0
-1263 -1267 0
-1263 -1268 0
-1263 -1269 0
-1263 -1270 0
-1264 -1265 0
-1264 -1266 0
-1264 -1267 0
-1264 -1268 0
-1264 -1269 0
-1264 -1270 0
-1265 -1266 0
-1265 -1267 0
-1265 -1268 0
-1265 -1269 0
-1265 -1270 0
-1266 -1267 0
-1266 -1268 0
-1266 -1269 0
-1266 -1270 0
-1267 -1268 0
-1267 -1269 0
-1267 -1270 0
-1268 -1269 0
-1268 -1270 0
-1269 -1270 0
1271 1272 1273 1274 1275 1276 1277 1278 1279 1280 0
-1271 -1272 0
-1271 -1273 0
-1271 -1274 0
-1271 -1275 0
-1271 -1276 0
-1271 -1277 0
-1271 -1278 0
-1271 -1279 0
-1271 -1280 0
-1272 -1273 0
-1272 -1274 0
-1272 -1275 0
-1272 -1276 0
-1272 -1277 0
-1272 -1278 0
-1272 -1279 0
-1272 -1280 0
-1273 -1274 0
-1273 -1275 0
-1273 -1276 0
-1273 -1277 0
-1273 -1278 0
-1273 -1279 0
-1273 -1280 0
-1274 -1275 0
-1274 -1276 0
-1274 -1277 0
-1274 -1278 0
-1274 -1279 0
-1274 -1280 0
-1275 -1276 0
-1275 -1277 0
-1275 -1278 0
-1275 -1279 0
-1275 -1280 0
-1276 -1277 0
-1276 -1278 0
-1276 -1279 0
-1276 -1280 0
-1277 -1278 0
-1277 -1279 0
-1277 -1280 0
-1278 -1279 0
-1278 -1280 0
-1279 -1280 0
1281 1282 1283 1284 1285 1286 1287 1288 1289 1290 0
-1281 -1282 0
-1281 -1283 0
-1281 -1284 0
-1281 -1285 0
-1281 -1286 0
-1281 -1287 0
-1281 -1288 0
-1281 -1289 0
-1281 -1290 0
-1282 -1283 0
-1282 -1284 0
-1282 -1285 0
-1282 -1286 0
-1282 -1287 0
-1282 -1288 0
-1282 -1289 0
-1282 -1290 0
-1283 -1284 0
-1283 -1285 0
-1283 -1286 0
-1283 -1287 0
-1283 -1288 0
-1283 -1289 0
-1283 -1290 0
-1284 -1285 0
-1284 -1286 0
-1284 -1287 0
-1284 -1288 0
-1284 -1289 0
-1284 -1290 0
-1285 -1286 0
-1285 -1287 0
-1285 -1288 0
-1285 -1289 0
-1285 -1290 0
-1286 -1287 0
-1286 -1288 0
-1286 -1289 0
-1286 -1290 0
-1287 -1288 0
-1287 -1289 0
-1287 -1290 0
-1288 -1289 0
-1288 -1290 0
-1289 -1290 0
1291 1292 1293 1294 1295 1296 1297 1298 1299 1300 0
-1291 -1292 0
-1291 -1293 0
-1291 -1294 0
-1291 -1295 0
-1291 -1296 0
-1291 -1297 0
-1291 -1298 0
-1291 -1299 0
-1291 -1300 0
-1292 -1293 0
-1292 -1294 0
-1292 -1295 0
-1292 -1296 0
-1292 -1297 0
-1292 -1298 0
-1292 -1299 0
-1292 -1300 0
-1293 -1294 0
-1293 -1295 0
-1293 -1296 0
-1293 -1297 0
-1293 -1298 0
-1293 -1299 0
-1293 -1300 0
-1294 -1295 0
-1294 -1296 0
-1294 -1297 0
-1294 -1298 0
-1294 -1299 0
-1294 -1300 0
-1295 -1296 0
-1295 -1297 0
-1295 -1298 0
-1295 -1299 0
-1295 -1300 0
-1296 -1297 0
-1296 -1298 0
-1296 -1299 0
-1296 -1300 0
-1297 -1298 0
-1297 -1299 0
-1297 -1300 0
-1298 -1299 0
-1298 -1300 0
-1299 -1300 0
1301 1302 1303 1304 1305 1306 1307 1308 1309 1310 0
-1301 -1302 0
-1301 -1303 0
-1301 -1304 0
-1301 -1305 0
-1301 -1306 0
-1301 -1307 0
-1301 -1308 0
-1301 -1309 0
-1301 -1310 0
-1302 -1303 0
-1302 -1304 0
-1302 -1305 0
-1302 -1306 0
-1302 -1307 0
-1302 -1308 0
-1302 -1309 0
-1302 -1310 0
-1303 -1304 0
-1303 -1305 0
-1303 -1306 0
-1303 -1307 0
-1303 -1308 0
-1303 -1309 0
-1303 -1310 0
-1304 -1305 0
-1304 -1306 0
-1304 -1307 0
-1304 -1308 0
-1304 -1309 0
-1304 -1310 0
-1305 -1306 0
-1305 -1307 0
-1305 -1308 0
-1305 -1309 0
-1305 -1310 0
-1306 -1307 0
-1306 -1308 0
-1306 -1309 0
-1306 -1310 0
-1307 -1308 0
-1307 -1309 0
-1307 -1310 0
-1308 -1309 0
-1308 -1310 0
-1309 -1310 0
1311 1312 1313 1314 1315 1316 1317 1318 1319 1320 0
-1311 -1312 0
-1311 -1313 0
-1311 -1314 0
-1311 -1315 0
-1311 -1316 0
-1311 -1317 0
-1311 -1318 0
-1311 -1319 0
-1311 -1320 0
-1312 -1313 0
-1312 -1314 0
-1312 -1315 0
-1312 -1316 0
-1312 -1317 0
-1312 -1318 0
-1312 -1319 0
-1312 -1320 0
-1313 -1314 0
-1313 -1315 0
-1313 -1316 0
-1313 -1317 0
-1313 -1318 0
-1313 -1319 0
-1313 -1320 0
-1314 -1315 0
-1314 -1316 0
-1314 -1317 0
-1314 -1318 0
-1314 -1319 0
-1314 -1320 0
-1315 -1316 0
-1315 -1317 0
-1315 -1318 0
-1315 -1319 0
-1315 -1320 0
-1316 -1317 0
-1316 -1318 0
-1316 -1319 0
-1316 -1320 0
-1317 -1318 0
-1317 -1319 0
-1317 -1320 0
-1318 -1319 0
-1318 -1320 0
-1319 -1320 0
1321 1322 1323 1324 1325 1326 1327 1328 1329 1330 0
-1321 -1322 0
-1321 -1323 0
-1321 -1324 0
-1321 -1325 0
-1321 -1326 0
-1321 -1327 0
-1321 -1328 0
-1321 -1329 0
-1321 -1330 0
-1322 -1323 0
-1322 -1324 0
-1322 -1325 0
-1322 -1326 0
-1322 -1327 0
-1322 -1328 0
-1322 -1329 0
-1322 -1330 0
-1323 -1324 0
-1323 -1325 0
-1323 -1326 0
-1323 -1327 0
-1323 -1328 0
-1323 -1329 0
-1323 -1330 0
-1324 -1325 0
-1324 -1326 0
-1324 -1327 0
-1324 -1328 0
-1324 -1329 0
-1324 -1330 0
-1325 -1326 0
-1325 -1327 0
-1325 -1328 0
-1325 -1329 0
-1325 -1330 0
-1326 -1327 0
-1326 -1328 0
-1326 -1329 0
-1326 -1330 0
-1327 -1328 0
-1327 -1329 0
-1327 -1330 0
-1328 -1329 0
-1328 -1330 0
-1329 -1330 0
1331 1332 1333 1334 1335 1336 1337 1338 1339 1340 0
-1331 -1332 0
-1331 -1333 0
-1331 -1334 0
-1331 -1335 0
-1331 -1336 0
-1331 -1337 0
-1331 -1338 0
-1331 -1339 0
-1331 -1340 0
-1332 -1333 0
-1332 -1334 0
-1332 -1335 0
-1332 -1336 0
-1332 -1337 0
-1332 -1338 0
-1332 -1339 0
-1332 -1340 0
-1333 -1334 0
-1333 -1335 0
-1333 -1336 0
-1333 -1337 0
-1333 -1338 0
-1333 -1339 0
-1333 -1340 0
-1334 -1335 0
-1334 -1336 0
-1334 -1337 0
-1334 -1338 0
-1334 -1339 0
-1334 -1340 0
-1335 -1336 0
-1335 -1337 0
-1335 -1338 0
-1335 -1339 0
-1335 -1340 0
-1336 -1337 0
-1336 -1338 0
-1336 -1339 0
-1336 -1340 0
-1337 -1338 0
-1337 -1339 0
-1337 -1340 0
-1338 -1339 0
-1338 -1340 0
-1339 -1340 0
1341 1342 1343 1344 1345 1346 1347 1348 1349 1350 0
-1341 -1342 0
-1341 -1343 0
-1341 -1344 0
-1341 -1345 0
-1341 -1346 0
-1341 -1347 0
-1341 -1348 0
-1341 -1349 0
-1341 -1350 0
-1342 -1343 0
-1342 -1344 0
-1342 -1345 0
-1342 -1346 0
-1342 -1347 0
-1342 -1348 0
-1342 -1349 0
-1342 -1350 0
-1343 -1344 0
-1343 -1345 0
-1343 -1346 0
-1343 -1347 0
-1343 -1348 0
-1343 -1349 0
-1343 -1350 0
-1344 -1345 0
-1344 -1346 0
-1344 -1347 0
-1344 -1348 0
-1344 -1349 0
-1344 -1350 0
-1345 -1346 0
-1345 -1347 0
-1345 -1348 0
-1345 -1349 0
-1345 -1350 0
-1346 -1347 0
-1346 -1348 0
-1346 -1349 0
-1346 -1350 0
-1347 -1348 0
-1347 -1349 0
-1347 -1350 0
-1348 -1349 0
-1348 -1350 0
-1349 -1350 0
1351 1352 1353 1354 1355 1356 1357 1358 1359 1360 0
-1351 -1352 0
-1351 -1353 0
-1351 -1354 0
-1351 -1355 0
-1351 -1356 0
-1351 -1357 0
-1351 -1358 0
-1351 -1359 0
-1351 -1360 0
-1352 -1353 0
-1352 -1354 0
-1352 -1355 0
-1352 -1356 0
-1352 -1357 0
-1352 -1358 0
-1352 -1359 0
-1352 -1360 0
-1353 -1354 0
-1353 -1355 0
-1353 -1356 0
-1353 -1357 0
-1353 -1358 0
-1353 -1359 0
-1353 -1360 0
-1354 -1355 0
-1354 -1356 0
-1354 -1357 0
-1354 -1358 0
-1354 -1359 0
-1354 -1360 0
-1355 -1356 0
-1355 -1357 0
-1355 -1358 0
-1355 -1359 0
-1355 -1360 0
-1356 -1357 0
-1356 -1358 0
-1356 -1359 0
-1356 -1360 0
-1357 -1358 0
-1357 -1359 0
-1357 -1360 0
-1358 -1359 0
-1358 -1360 0
-1359 -1360 0
1361 1362 1363 1364 1365 1366 1367 1368 1369 1370 0
-1361 -1362 0
-1361 -1363 0
-1361 -1364 0
-1361 -1365 0
-1361 -1366 0
-1361 -1367 0
-1361 -1368 0
-1361 -1369 0
-1361 -1370 0
-1362 -1363 0
-1362 -1364 0
-1362 -1365 0
-1362 -1366 0
-1362 -1367 0
-1362 -1368 0
-1362 -1369 0
-1362 -1370 0
-1363 -1364 0
-1363 -1365 0
-1363 -1366 0
-1363 -1367 0
-1363 -1368 0
-1363 -1369 0
-1363 -1370 0
-1364 -1365 0
-1364 -1366 0
-1364 -1367 0
-1364 -1368 0
-1364 -1369 0
-1364 -1370 0
-1365 -1366 0
-1365 -1367 0
-1365 -1368 0
-1365 -1369 0
-1365 -1370 0
-1366 -1367 0
-1366 -1368 0
-1366 -1369 0
-1366 -1370 0
-1367 -1368 0
-1367 -1369 0
-1367 -1370 0
-1368 -1369 0
-1368 -1370 0
-1369 -1370 0
1371 1372 1373 1374 1375 1376 1377 1378 1379 1380 0
-1371 -1372 0
-1371 -1373 0
-1371 -1374 0
-1371 -1375 0
-1371 -1376 0
-1371 -1377 0
-1371 -1378 0
-1371 -1379 0
-1371 -1380 0
-1372 -1373 0
-1372 -1374 0
-1372 -1375 0
-1372 -1376 0
-1372 -1377 0
-1372 -1378 0
-1372 -1379 0
-1372 -1380 0
-1373 -1374 0
-1373 -1375 0
-1373 -1376 0
-1373 -1377 0
-1373 -1378 0
-1373 -1379 0
-1373 -1380 0
-1374 -1375 0
-1374 -1376 0
-1374 -1377 0
-1374 -1378 0
-1374 -1379 0
-1374 -1380 0
-1375 -1376 0
-1375 -1377 0
-1375 -1378 0
-1375 -1379 0
-1375 -1380 0
-1376 -1377 0
-1376 -1378 0
-1376 -1379 0
-1376 -1380 0
-1377 -1378 0
-1377 -1379 0
-1377 -1380 0
-1378 -1379 0
-1378 -1380 0
-1379 -1380 0
1381 1382 1383 1384 1385 1386 1387 1388 1389 1390 0
-1381 -1382 0
-1381 -1383 0
-1381 -1384 0
-1381 -1385 0
-1381 -1386 0
-1381 -1387 0
-1381 -1388 0
-1381 -1389 0
-1381 -1390 0
-1382 -1383 0
-1382 -1384 0
-1382 -1385 0
-1382 -1386 0
-1382 -1387 0
-1382 -1388 0
-1382 -1389 0
-1382 -1390 0
-1383 -1384 0
-1383 -1385 0
-1383 -1386 0
-1383 -1387 0
-1383 -1388 0
-1383 -1389 0
-1383 -1390 0
-1384 -1385 0
-1384 -1386 0
-1384 -1387 0
-1384 -1388 0
-1384 -1389 0
-1384 -1390 0
-1385 -1386 0
-1385 -1387 0
-1385 -1388 0
-1385 -1389 0
-1385 -1390 0
-1386 -1387 0
-1386 -1388 0
-1386 -1389 0
-1386 -1390 0
-1387 -1388 0
-1387 -1389 0
-1387 -1390 0
-1388 -1389 0
-1388 -1390 0
-1389 -1390 0
1391 1392 1393 1394 1395 1396 1397 1398 1399 1400 0
-1391 -1392 0
-1391 -1393 0
-1391 -1394 0
-1391 -1395 0
-1391 -1396 0
-1391 -1397 0
-1391 -1398 0
-1391 -1399 0
-1391 -1400 0
-1392 -1393 0
-1392 -1394 0
-1392 -1395 0
-1392 -1396 0
-1392 -1397 0
-1392 -1398 0
-1392 -1399 0
-1392 -1400 0
-1393 -1394 0
-1393 -1395 0
-1393 -1396 0
-1393 -1397 0
-1393 -1398 0
-1393 -1399 0
-1393 -1400 0
-1394 -1395 0
-1394 -1396 0
-1394 -1397 0
-1394 -1398 0
-1394 -1399 0
-1394 -1400 0
-1395 -1396 0
-1395 -1397 0
-1395 -1398 0
-1395 -1399 0
-1395 -1400 0
-1396 -1397 0
-1396 -1398 0
-1396 -1399 0
-1396 -1400 0
-1397 -1398 0
-1397 -1399 0
-1397 -1400 0
-1398 -1399 0
-1398 -1400 0
-1399 -1400 0
1401 1402 1403 1404 1405 1406 1407 1408 1409 1410 0
-1401 -1402 0
-1401 -1403 0
-1401 -1404 0
-1401 -1405 0
-1401 -1406 0
-1401 -1407 0
-1401 -1408 0
-1401 -1409 0
-1401 -1410 0
-1402 -1403 0
-1402 -1404 0
-1402 -1405 0
-1402 -1406 0
-1402 -1407 0
-1402 -1408 0
-1402 -1409 0
-1402 -1410 0
-1403 -1404 0
-1403 -1405 0
-1403 -1406 0
-1403 -1407 0
-1403 -1408 0
-1403 -1409 0
-1403 -1410 0
-1404 -1405 0
-1404 -1406 0
-1404 -1407 0
-1404 -1408 0
-1404 -1409 0
-1404 -1410 0
-1405 -1406 0
-1405 -1407 0
-1405 -1408 0
-1405 -1409 0
-1405 -1410 0
-1406 -1407 0
-1406 -1408 0
-1406 -1409 0
-1406 -1410 0
-1407 -1408 0
-1407 -1409 0
-1407 -1410 0
-1408 -1409 0
-1408 -1410 0
-1409 -1410 0
1411 1412 1413 1414 1415 1416 1417 1418 1419 1420 0
-1411 -1412 0
-1411 -1413 0
-1411 -1414 0
-1411 -1415 0
-1411 -1416 0
-1411 -1417 0
-1411 -1418 0
-1411 -1419 0
-1411 -1420 0
-1412 -1413 0
-1412 -1414 0
-1412 -1415 0
-1412 -1416 0
-1412 -1417 0
-1412 -1418 0
-1412 -1419 0
-1412 -1420 0
-1413 -1414 0
-1413 -1415 0
-1413 -1416 0
-1413 -1417 0
-1413 -1418 0
-1413 -1419 0
-1413 -1420 0
-1414 -1415 0
-1414 -1416 0
-1414 -1417 0
-1414 -1418 0
-1414 -1419 0
-1414 -1420 0
-1415 -1416 0
-1415 -1417 0
-1415 -1418 0
-1415 -1419 0
-1415 -1420 0
-1416 -1417 0
-1416 -1418 0
-1416 -1419 0
-1416 -1420 0
-1417 -1418 0
-1417 -1419 0
-1417 -1420 0
-1418 -1419 0
-1418 -1420 0
-1419 -1420 0
1421 1422 1423 1424 1425 1426 1427 1428 1429 1430 0
-1421 -1422 0
-1421 -1423 0
-1421 -1424 0
-1421 -1425 0
-1421 -1426 0
-1421 -1427 0
-1421 -1428 0
-1421 -1429 0
-1421 -1430 0
-1422 -1423 0
-1422 -1424 0
-1422 -1425 0
-1422 -1426 0
-1422 -1427 0
-1422 -1428 0
-1422 -1429 0
-1422 -1430 0
-1423 -1424 0
-1423 -1425 0
-1423 -1426 0
-1423 -1427 0
-1423 -1428 0
-1423 -1429 0
-1423 -1430 0
-1424 -1425 0
-1424 -1426 0
-1424 -1427 0
-1424 -1428 0
-1424 -1429 0
-1424 -1430 0
-1425 -1426 0
-1425 -1427 0
-1425 -1428 0
-1425 -1429 0
-1425 -1430 0
-1426 -1427 0
-1426 -1428 0
-1426 -1429 0
-1426 -1430 0
-1427 -1428 0
-1427 -1429 0
-1427 -1430 0
-1428 -1429 0
-1428 -1430 0
-1429 -1430 0
1431 1432 1433 1434 1435 1436 1437 1438 1439 1440 0
-1431 -1432 0
-1431 -1433 0
-1431 -1434 0
-1431 -1435 0
-1431 -1436 0
-1431 -1437 0
-1431 -1438 0
-1431 -1439 0
-1431 -1440 0
-1432 -1433 0
-1432 -1434 0
-1432 -1435 0
-1432 -1436 0
-1432 -1437 0
-1432 -1438 0
-1432 -1439 0
-1432 -1440 0
-1433 -1434 0
-1433 -1435 0
-1433 -1436 0
-1433 -1437 0
-1433 -1438 0
-1433 -1439 0
-1433 -1440 0
-1434 -1435 0
-1434 -1436 0
-1434 -1437 0
-1434 -1438 0
-1434 -1439 0
-1434 -1440 0
-1435 -1436 0
-1435 -1437 0
-1435 -1438 0
-1435 -1439 0
-1435 -1440 0
-1436 -1437 0
-1436 -1438 0
-1436 -1439 0
-1436 -1440 0
-1437 -1438 0
-1437 -1439 0
-1437 -1440 0
-1438 -1439 0
-1438 -1440 0
-1439 -1440 0
1441 1442 1443 1444 1445 1446 1447 1448 1449 1450 0
-1441 -1442 0
-1441 -1443 0
-1441 -1444 0
-1441 -1445 0
-1441 -1446 0
-1441 -1447 0
-1441 -1448 0
-1441 -1449 0
-1441 -1450 0
-1442 -1443 0
-1442 -1444 0
-1442 -1445 0
-1442 -1446 0
-1442 -1447 0
-1442 -1448 0
-1442 -1449 0
-1442 -1450 0
-1443 -1444 0
-1443 -1445 0
-1443 -1446 0
-1443 -1447 0
-1443 -1448 0
-1443 -1449 0
-1443 -1450 0
-1444 -1445 0
-1444 -1446 0
-1444 -1447 0
-1444 -1448 0
-1444 -1449 0
-1444 -1450 0
-1445 -1446 0
-1445 -1447 0
-1445 -1448 0
-1445 -1449 0
-1445 -1450 0
-1446 -1447 0
-1446 -1448 0
-1446 -1449 0
-1446 -1450 0
-1447 -1448 0
-1447 -1449 0
-1447 -1450 0
-1448 -1449 0
-1448 -1450 0
-1449 -1450 0
1451 1452 1453 1454 1455 1456 1457 1458 1459 1460 0
-1451 -1452 0
-1451 -1453 0
-1451 -1454 0
-1451 -1455 0
-1451 -1456 0
-1451 -1457 0
-1451 -1458 0
-1451 -1459 0
-1451 -1460 0
-1452 -1453 0
-1452 -1454 0
-1452 -1455 0
-1452 -1456 0
-1452 -1457 0
-1452 -1458 0
-1452 -1459 0
-1452 -1460 0
-1453 -1454 0
-1453 -1455 0
-1453 -1456 0
-1453 -1457 0
-1453 -1458 0
-1453 -1459 0
-1453 -1460 0
-1454 -1455 0
-1454 -1456 0
-1454 -1457 0
-1454 -1458 0
-1454 -1459 0
-1454 -1460 0
-1455 -1456 0
-1455 -1457 0
-1455 -1458 0
-1455 -1459 0
-1455 -1460 0
-1456 -1457 0
-1456 -1458 0
-1456 -1459 0
-1456 -1460 0
-1457 -1458 0
-1457 -1459 0
-1457 -1460 0
-1458 -1459 0
-1458 -1460 0
-1459 -1460 0
1461 1462 1463 1464 1465 1466 1467 1468 1469 1470 0
-1461 -1462 0
-1461 -1463 0
-1461 -1464 0
-1461 -1465 0
-1461 -1466 0
-1461 -1467 0
-1461 -1468 0
-1461 -1469 0
-1461 -1470 0
-1462 -1463 0
-1462 -1464 0
-1462 -1465 0
-1462 -1466 0
-1462 -1467 0
-1462 -1468 0
-1462 -1469 0
-1462 -1470 0
-1463 -1464 0
-1463 -1465 0
-1463 -1466 0
-1463 -1467 0
-1463 -1468 0
-1463 -1469 0
-1463 -1470 0
-1464 -1465 0
-1464 -1466 0
-1464 -1467 0
-1464 -1468 0
-1464 -1469 0
-1464 -1470 0
-1465 -1466 0
-1465 -1467 0
-1465 -1468 0
-1465 -1469 0
-1465 -1470 0
-1466 -1467 0
-1466 -1468 0
-1466 -1469 0
-1466 -1470 0
-1467 -1468 0
-1467 -1469 0
-1467 -1470 0
-1468 -1469 0
-1468 -1470 0
-1469 -1470 0
1471 1472 1473 1474 1475 1476 1477 1478 1479 1480 0
-1471 -1472 0
-1471 -1473 0
-1471 -1474 0
-1471 -1475 0
-1471 -1476 0
-1471 -1477 0
-1471 -1478 0
-1471 -1479 0
-1471 -1480 0
-1472 -1473 0
-1472 -1474 0
-1472 -1475 0
-1472 -1476 0
-1472 -1477 0
-1472 -1478 0
-1472 -1479 0
-1472 -1480 0
-1473 -1474 0
-1473 -1475 0
-1473 -1476 0
-1473 -1477 0
-1473 -1478 0
-1473 -1479 0
-1473 -1480 0
-1474 -1475 0
-1474 -1476 0
-1474 -1477 0
-1474 -1478 0
-1474 -1479 0
-1474 -1480 0
-1475 -1476 0
-1475 -1477 0
-1475 -1478 0
-1475 -1479 0
-1475 -1480 0
-1476 -1477 0
-1476 -1478 0
-1476 -1479 0
-1476 -1480 0
-1477 -1478 0
-1477 -1479 0
-1477 -1480 0
-1478 -1479 0
-1478 -1480 0
-1479 -1480 0
1481 1482 1483 1484 1485 1486 1487 1488 1489 1490 0
-1481 -1482 0
-1481 -1483 0
-1481 -1484 0
-1481 -1485 0
-1481 -1486 0
-1481 -1487 0
-1481 -1488 0
-1481 -1489 0
-1481 -1490 0
-1482 -1483 0
-1482 -1484 0
-1482 -1485 0
-1482 -1486 0
-1482 -1487 0
-1482 -1488 0
-1482 -1489 0
-1482 -1490 0
-1483 -1484 0
-1483 -1485 0
-1483 -1486 0
-1483 -1487 0
-1483 -1488 0
-1483 -1489 0
-1483 -1490 0
-1484 -1485 0
-1484 -1486 0
-1484 -1487 0
-1484 -1488 0
-1484 -1489 0
-1484 -1490 0
-1485 -1486 0
-1485 -1487 0
-1485 -1488 0
-1485 -1489 0
-1485 -1490 0
-1486 -1487 0
-1486 -1488 0
-1486 -1489 0
-1486 -1490 0
-1487 -1488 0
-1487 -1489 0
-1487 -1490 0
-1488 -1489 0
-1488 -1490 0
-1489 -1490 0
1491 1492 1493 1494 1495 1496 1497 1498 1499 1500 0
-1491 -1492 0
-1491 -1493 0
-1491 -1494 0
-1491 -1495 0
-1491 -1496 0
-1491 -1497 0
-1491 -1498 0
-1491 -1499 0
-1491 -1500 0
-1492 -1493 0
-1492 -1494 0
-1492 -1495 0
-1492 -1496 0
-1492 -1497 0
-1492 -1498 0
-1492 -1499 0
-1492 -1500 0
-1493 -1494 0
-1493 -1495 0
-1493 -1496 0
-1493 -1497 0
-1493 -1498 0
-1493 -1499 0
-1493 -1500 0
-1494 -1495 0
-1494 -1496 0
-1494 -1497 0
-1494 -1498 0
-1494 -1499 0
-1494 -1500 0
-1495 -1496 0
-1495 -1497 0
-1495 -1498 0
-1495 -1499 0
-1495 -1500 0
-1496 -1497 0
-1496 -1498 0
-1496 -1499 0
-1496 -1500 0
-1497 -1498 0
-1497 -1499 0
-1497 -1500 0
-1498 -1499 0
-1498 -1500 0
-1499 -1500 0
1501 1502 1503 1504 1505 1506 1507 1508 1509 1510 0
-1501 -1502 0
-1501 -1503 0
-1501 -1504 0
-1501 -1505 0
-1501 -1506 0
-1501 -1507 0
-1501 -1508 0
-1501 -1509 0
-1501 -1510 0
-1502 -1503 0
-1502 -1504 0
-1502 -1505 0
-1502 -1506 0
-1502 -1507 0
-1502 -1508 0
-1502 -1509 0
-1502 -1510 0
-1503 -1504 0
-1503 -1505 0
-1503 -1506 0
-1503 -1507 0
-1503 -1508 0
-1503 -1509 0
-1503 -1510 0
-1504 -1505 0
-1504 -1506 0
-1504 -1507 0
-1504 -1508 0
-1504 -1509 0
-1504 -1510 0
-1505 -1506 0
-1505 -1507 0
-1505 -1508 0
-1505 -1509 0
-1505 -1510 0
-1506 -1507 0
-1506 -1508 0
-1506 -1509 0
-1506 -1510 0
-1507 -1508 0
-1507 -1509 0
-1507 -1510 0
-1508 -1509 0
-1508 -1510 0
-1509 -1510 0
1511 1512 1513 1514 1515 1516 1517 1518 1519 1520 0
-1511 -1512 0
-1511 -1513 0
-1511 -1514 0
-1511 -1515 0
-1511 -1516 0
-1511 -1517 0
-1511 -1518 0
-1511 -1519 0
-1511 -1520 0
-1512 -1513 0
-1512 -1514 0
-1512 -1515 0
-1512 -1516 0
-1512 -1517 0
-1512 -1518 0
-1512 -1519 0
-1512 -1520 0
-1513 -1514 0
-1513 -1515 0
-1513 -1516 0
-1513 -1517 0
-1513 -1518 0
-1513 -1519 0
-1513 -1520 0
-1514 -1515 0
-1514 -1516 0
-1514 -1517 0
-1514 -1518 0
-1514 -1519 0
-1514 -1520 0
-1515 -1516 0
-1515 -1517 0
-1515 -1518 0
-1515 -1519 0
-1515 -1520 0
-1516 -1517 0
-1516 -1518 0
-1516 -1519 0
-1516 -1520 0
-1517 -1518 0
-1517 -1519 0
-1517 -1520 0
-1518 -1519 0
-1518 -1520 0
-1519 -1520 0
1521 1522 1523 1524 1525 1526 1527 1528 1529 1530 0
-1521 -1522 0
-1521 -1523 0
-1521 -1524 0
-1521 -1525 0
-1521 -1526 0
-1521 -1527 0
-1521 -1528 0
-1521 -1529 0
-1521 -1530 0
-1522 -1523 0
-1522 -1524 0
-1522 -1525 0
-1522 -1526 0
-1522 -1527 0
-1522 -1528 0
-1522 -1529 0
-1522 -1530 0
-1523 -1524 0
-1523 -1525 0
-1523 -1526 0
-1523 -1527 0
-1523 -1528 0
-1523 -1529 0
-1523 -1530 0
-1524 -1525 0
-1524 -1526 0
-1524 -1527 0
-1524 -1528 0
-1524 -1529 0
-1524 -1530 0
-1525 -1526 0
-1525 -1527 0
-1525 -1528 0
-1525 -1529 0
-1525 -1530 0
-1526 -1527 0
-1526 -1528 0
-1526 -1529 0
-1526 -1530 0
-1527 -1528 0
-1527 -1529 0
-1527 -1530 0
-1528 -1529 0
-1528 -1530 0
-1529 -1530 0
1531 1532 1533 1534 1535 1536 1537 1538 1539 1540 0
-1531 -1532 0
-1531 -1533 0
-1531 -1534 0
-1531 -1535 0
-1531 -1536 0
-1531 -1537 0
-1531 -1538 0
-1531 -1539 0
-1531 -1540 0
-1532 -1533 0
-1532 -1534 0
-1532 -1535 0
-1532 -1536 0
-1532 -1537 0
-1532 -1538 0
-1532 -1539 0
-1532 -1540 0
-1533 -1534 0
-1533 -1535 0
-1533 -1536 0
-1533 -1537 0
-1533 -1538 0
-1533 -1539 0
-1533 -1540 0
-1534 -1535 0
-1534 -1536 0
-1534 -1537 0
-1534 -1538 0
-1534 -1539 0
-1534 -1540 0
-1535 -1536 0
-1535 -1537 0
-1535 -1538 0
-1535 -1539 0
-1535 -1540 0
-1536 -1537 0
-1536 -1538 0
-1536 -1539 0
-1536 -1540 0
-1537 -1538 0
-1537 -1539 0
-1537 -1540 0
-1538 -1539 0
-1538 -1540 0
-1539 -1540 0
1541 1542 1543 1544 1545 1546 1547 1548 1549 1550 0
-1541 -1542 0
-1541 -1543 0
-1541 -1544 0
-1541 -1545 0
-1541 -1546 0
-1541 -1547 0
-1541 -1548 0
-1541 -1549 0
-1541 -1550 0
-1542 -1543 0
-1542 -1544 0
-1542 -1545 0
-1542 -1546 0
-1542 -1547 0
-1542 -1548 0
-1542 -1549 0
-1542 -1550 0
-1543 -1544 0
-1543 -1545 0
-1543 -1546 0
-1543 -1547 0
-1543 -1548 0
-1543 -1549 0
-1543 -1550 0
-1544 -1545 0
-1544 -1546 0
-1544 -1547 0
-1544 -1548 0
-1544 -1549 0
-1544 -1550 0
-1545 -1546 0
-1545 -1547 0
-1545 -1548 0
-1545 -1549 0
-1545 -1550 0
-1546 -1547 0
-1546 -1548 0
-1546 -1549 0
-1546 -1550 0
-1547 -1548 0
-1547 -1549 0
-1547 -1550 0
-1548 -1549 0
-1548 -1550 0
-1549 -1550 0
1551 1552 1553 1554 1555 1556 1557 1558 1559 1560 0
-1551 -1552 0
-1551 -1553 0
-1551 -1554 0
-1551 -1555 0
-1551 -1556 0
-1551 -1557 0
-1551 -1558 0
-1551 -1559 0
-1551 -1560 0
-1552 -1553 0
-1552 -1554 0
-1552 -1555 0
-1552 -1556 0
-1552 -1557 0
-1552 -1558 0
-1552 -1559 0
-1552 -1560 0
-1553 -1554 0
-1553 -1555 0
-1553 -1556 0
-1553 -1557 0
-1553 -1558 0
-1553 -1559 0
-1553 -1560 0
-1554 -1555 0
-1554 -1556 0
-1554 -1557 0
-1554 -1558 0
-1554 -1559 0
-1554 -1560 0
-1555 -1556 0
-1555 -1557 0
-1555 -1558 0
-1555 -1559 0
-1555 -1560 0
-1556 -1557 0
-1556 -1558 0
-1556 -1559 0
-1556 -1560 0
-1557 -1558 0
-1557 -1559 0
-1557 -1560 0
-1558 -1559 0
-1558 -1560 0
-1559 -1560 0
1561 1562 1563 1564 1565 1566 1567 1568 1569 1570 0
-1561 -1562 0
-1561 -1563 0
-1561 -1564 0
-1561 -1565 0
-1561 -1566 0
-1561 -1567 0
-1561 -1568 0
-1561 -1569 0
-1561 -1570 0
-1562 -1563 0
-1562 -1564 0
-1562 -1565 0
-1562 -1566 0
-1562 -1567 0
-1562 -1568 0
-1562 -1569 0
-1562 -1570 0
-1563 -1564 0
-1563 -1565 0
-1563 -1566 0
-1563 -1567 0
-1563 -1568 0
-1563 -1569 0
-1563 -1570 0
-1564 -1565 0
-1564 -1566 0
-1564 -1567 0
-1564 -1568 0
-1564 -1569 0
-1564 -1570 0
-1565 -1566 0
-1565 -1567 0
-1565 -1568 0
-1565 -1569 0
-1565 -1570 0
-1566 -1567 0
-1566 -1568 0
-1566 -1569 0
-1566 -1570 0
-1567 -1568 0
-1567 -1569 0
-1567 -1570 0
-1568 -1569 0
-1568 -1570 0
-1569 -1570 0
1571 1572 1573 1574 1575 1576 1577 1578 1579 1580 0
-1571 -1572 0
-1571 -1573 0
-1571 -1574 0
-1571 -1575 0
-1571 -1576 0
-1571 -1577 0
-1571 -1578 0
-1571 -1579 0
-1571 -1580 0
-1572 -1573 0
-1572 -1574 0
-1572 -1575 0
-1572 -1576 0
-1572 -1577 0
-1572 -1578 0
-1572 -1579 0
-1572 -1580 0
-1573 -1574 0
-1573 -1575 0
-1573 -1576 0
-1573 -1577 0
-1573 -1578 0
-1573 -1579 0
-1573 -1580 0
-1574 -1575 0
-1574 -1576 0
-1574 -1577 0
-1574 -1578 0
-1574 -1579 0
-1574 -1580 0
-1575 -1576 0
-1575 -1577 0
-1575 -1578 0
-1575 -1579 0
-1575 -1580 0
-1576 -1577 0
-1576 -1578 0
-1576 -1579 0
-1576 -1580 0
-1577 -1578 0
-1577 -1579 0
-1577 -1580 0
-1578 -1579 0
-1578 -1580 0
-1579 -1580 0
1581 1582 1583 1584 1585 1586 1587 1588 1589 1590 0
-1581 -1582 0
-1581 -1583 0
-1581 -1584 0
-1581 -1585 0
-1581 -1586 0
-1581 -1587 0
-1581 -1588 0
-1581 -1589 0
-1581 -1590 0
-1582 -1583 0
-1582 -1584 0
-1582 -1585 0
-1582 -1586 0
-1582 -1587 0
-1582 -1588 0
-1582 -1589 0
-1582 -1590 0
-1583 -1584 0
-1583 -1585 0
-1583 -1586 0
-1583 -1587 0
-1583 -1588 0
-1583 -1589 0
-1583 -1590 0
-1584 -1585 0
-1584 -1586 0
-1584 -1587 0
-1584 -1588 0
-1584 -1589 0
-1584 -1590 0
-1585 -1586 0
-1585 -1587 0
-1585 -1588 0
-1585 -1589 0
-1585 -1590 0
-1586 -1587 0
-1586 -1588 0
-1586 -1589 0
-1586 -1590 0
-1587 -1588 0
-1587 -1589 0
-1587 -1590 0
-1588 -1589 0
-1588 -1590 0
-1589 -1590 0
1591 1592 1593 1594 1595 1596 1597 1598 1599 1600 0
-1591 -1592 0
-1591 -1593 0
-1591 -1594 0
-1591 -1595 0
-1591 -1596 0
-1591 -1597 0
-1591 -1598 0
-1591 -1599 0
-1591 -1600 0
-1592 -1593 0
-1592 -1594 0
-1592 -1595 0
-1592 -1596 0
-1592 -1597 0
-1592 -1598 0
-1592 -1599 0
-1592 -1600 0
-1593 -1594 0
-1593 -1595 0
-1593 -1596 0
-1593 -1597 0
-1593 -1598 0
-1593 -1599 0
-1593 -1600 0
-1594 -1595 0
-1594 -1596 0
-1594 -1597 0
-1594 -1598 0
-1594 -1599 0
-1594 -1600 0
-1595 -1596 0
-1595 -1597 0
-1595 -1598 0
-1595 -1599 0
-1595 -1600 0
-1596 -1597 0
-1596 -1598 0
-1596 -1599 0
-1596 -1600 0
-1597 -1598 0
-1597 -1599 0
-1597 -1600 0
-1598 -1599 0
-1598 -1600 0
-1599 -1600 0
1601 1602 1603 1604 1605 1606 1607 1608 1609 1610 0
-1601 -1602 0
-1601 -1603 0
-1601 -1604 0
-1601 -1605 0
-1601 -1606 0
-1601 -1607 0
-1601 -1608 0
-1601 -1609 0
-1601 -1610 0
-1602 -1603 0
-1602 -1604 0
-1602 -1605 0
-1602 -1606 0
-1602 -1607 0
-1602 -1608 0
-1602 -1609 0
-1602 -1610 0
-1603 -1604 0
-1603 -1605 0
-1603 -1606 0
-1603 -1607 0
-1603 -1608 0
-1603 -1609 0
-1603 -1610 0
-1604 -1605 0
-1604 -1606 0
-1604 -1607 0
-1604 -1608 0
-1604 -1609 0
-1604 -1610 0
-1605 -1606 0
-1605 -1607 0
-1605 -1608 0
-1605 -1609 0
-1605 -1610 0
-1606 -1607 0
-1606 -1608 0
-1606 -1609 0
-1606 -1610 0
-1607 -1608 0
-1607 -1609 0
-1607 -1610 0
-1608 -1609 0
-1608 -1610 0
-1609 -1610 0
1611 1612 1613 1614 1615 1616 1617 1618 1619 1620 0
-1611 -1612 0
-1611 -1613 0
-1611 -1614 0
-1611 -1615 0
-1611 -1616 0
-1611 -1617 0
-1611 -1618 0
-1611 -1619 0
-1611 -1620 0
-1612 -1613 0
-1612 -1614 0
-1612 -1615 0
-1612 -1616 0
-1612 -1617 0
-1612 -1618 0
-1612 -1619 0
-1612 -1620 0
-1613 -1614 0
-1613 -1615 0
-1613 -1616 0
-1613 -1617 0
-1613 -1618 0
-1613 -1619 0
-1613 -1620 0
-1614 -1615 0
-1614 -1616 0
-1614 -1617 0
-1614 -1618 0
-1614 -1619 0
-1614 -1620 0
-1615 -1616 0
-1615 -1617 0
-1615 -1618 0
-1615 -1619 0
-1615 -1620 0
-1616 -1617 0
-1616 -1618 0
-1616 -1619 0
-1616 -1620 0
-1617 -1618 0
-1617 -1619 0
-1617 -1620 0
-1618 -1619 0
-1618 -1620 0
-1619 -1620 0
1621 1622 1623 1624 1625 1626 1627 1628 1629 1630 0
-1621 -1622 0
-1621 -1623 0
-1621 -1624 0
-1621 -1625 0
-1621 -1626 0
-1621 -1627 0
-1621 -1628 0
-1621 -1629 0
-1621 -1630 0
-1622 -1623 0
-1622 -1624 0
-1622 -1625 0
-1622 -1626 0
-1622 -1627 0
-1622 -1628 0
-1622 -1629 0
-1622 -1630 0
-1623 -1624 0
-1623 -1625 0
-1623 -1626 0
-1623 -1627 0
-1623 -1628 0
-1623 -1629 0
-1623 -1630 0
-1624 -1625 0
-1624 -1626 0
-1624 -1627 0
-1624 -1628 0
-1624 -1629 0
-1624 -1630 0
-1625 -1626 0
-1625 -1627 0
-1625 -1628 0
-1625 -1629 0
-1625 -1630 0
-1626 -1627 0
-1626 -1628 0
-1626 -1629 0
-1626 -1630 0
-1627 -1628 0
-1627 -1629 0
-1627 -1630 0
-1628 -1629 0
-1628 -1630 0
-1629 -1630 0
1631 1632 1633 1634 1635 1636 1637 1638 1639 1640 0
-1631 -1632 0
-1631 -1633 0
-1631 -1634 0
-1631 -1635 0
-1631 -1636 0
-1631 -1637 0
-1631 -1638 0
-1631 -1639 0
-1631 -1640 0
-1632 -1633 0
-1632 -1634 0
-1632 -1635 0
-1632 -1636 0
-1632 -1637 0
-1632 -1638 0
-1632 -1639 0
-1632 -1640 0
-1633 -1634 0
-1633 -1635 0
-1633 -1636 0
-1633 -1637 0
-1633 -1638 0
-1633 -1639 0
-1633 -1640 0
-1634 -1635 0
-1634 -1636 0
-1634 -1637 0
-1634 -1638 0
-1634 -1639 0
-1634 -1640 0
-1635 -1636 0
-1635 -1637 0
-1635 -1638 0
-1635 -1639 0
-1635 -1640 0
-1636 -1637 0
-1636 -1638 0
-1636 -1639 0
-1636 -1640 0
-1637 -1638 0
-1637 -1639 0
-1637 -1640 0
-1638 -1639 0
-1638 -1640 0
-1639 -1640 0
1641 1642 1643 1644 1645 1646 1647 1648 1649 1650 0
-1641 -1642 0
-1641 -1643 0
-1641 -1644 0
-1641 -1645 0
-1641 -1646 0
-1641 -1647 0
-1641 -1648 0
-1641 -1649 0
-1641 -1650 0
-1642 -1643 0
-1642 -1644 0
-1642 -1645 0
-1642 -1646 0
-1642 -1647 0
-1642 -1648 0
-1642 -1649 0
-1642 -1650 0
-1643 -1644 0
-1643 -1645 0
-1643 -1646 0
-1643 -1647 0
-1643 -1648 0
-1643 -1649 0
-1643 -1650 0
-1644 -1645 0
-1644 -1646 0
-1644 -1647 0
-1644 -1648 0
-1644 -1649 0
-1644 -1650 0
-1645 -1646 0
-1645 -1647 0
-1645 -1648 0
-1645 -1649 0
-1645 -1650 0
-1646 -1647 0
-1646 -1648 0
-1646 -1649 0
-1646 -1650 0
-1647 -1648 0
-1647 -1649 0
-1647 -1650 0
-1648 -1649 0
-1648 -1650 0
-1649 -1650 0
1651 1652 1653 1654 1655 1656 1657 1658 1659 1660 0
-1651 -1652 0
-1651 -1653 0
-1651 -1654 0
-1651 -1655 0
-1651 -1656 0
-1651 -1657 0
-1651 -1658 0
-1651 -1659 0
-1651 -1660 0
-1652 -1653 0
-1652 -1654 0
-1652 -1655 0
-1652 -1656 0
-1652 -1657 0
-1652 -1658 0
-1652 -1659 0
-1652 -1660 0
-1653 -1654 0
-1653 -1655 0
-1653 -1656 0
-1653 -1657 0
-1653 -1658 0
-1653 -1659 0
-1653 -1660 0
-1654 -1655 0
-1654 -1656 0
-1654 -1657 0
-1654 -1658 0
-1654 -1659 0
-1654 -1660 0
-1655 -1656 0
-1655 -1657 0
-1655 -1658 0
-1655 -1659 0
-1655 -1660 0
-1656 -1657 0
-1656 -1658 0
-1656 -1659 0
-1656 -1660 0
-1657 -1658 0
-1657 -1659 0
-1657 -1660 0
-1658 -1659 0
-1658 -1660 0
-1659 -1660 0
1661 1662 1663 1664 1665 1666 1667 1668 1669 1670 0
-1661 -1662 0
-1661 -1663 0
-1661 -1664 0
-1661 -1665 0
-1661 -1666 0
-1661 -1667 0
-1661 -1668 0
-1661 -1669 0
-1661 -1670 0
-1662 -1663 0
-1662 -1664 0
-1662 -1665 0
-1662 -1666 0
-1662 -1667 0
-1662 -1668 0
-1662 -1669 0
-1662 -1670 0
-1663 -1664 0
-1663 -1665 0
-1663 -1666 0
-1663 -1667 0
-1663 -1668 0
-1663 -1669 0
-1663 -1670 0
-1664 -1665 0
-1664 -1666 0
-1664 -1667 0
-1664 -1668 0
-1664 -1669 0
-1664 -1670 0
-1665 -1666 0
-1665 -1667 0
-1665 -1668 0
-1665 -1669 0
-1665 -1670 0
-1666 -1667 0
-1666 -1668 0
-1666 -1669 0
-1666 -1670 0
-1667 -1668 0
-1667 -1669 0
-1667 -1670 0
-1668 -1669 0
-1668 -1670 0
-1669 -1670 0
1671 1672 1673 1674 1675 1676 1677 1678 1679 1680 0
-1671 -1672 0
-1671 -1673 0
-1671 -1674 0
-1671 -1675 0
-1671 -1676 0
-1671 -1677 0
-1671 -1678 0
-1671 -1679 0
-1671 -1680 0
-1672 -1673 0
-1672 -1674 0
-1672 -1675 0
-1672 -1676 0
-1672 -1677 0
-1672 -1678 0
-1672 -1679 0
-1672 -1680 0
-1673 -1674 0
-1673 -1675 0
-1673 -1676 0
-1673 -1677 0
-1673 -1678 0
-1673 -1679 0
-1673 -1680 0
-1674 -1675 0
-1674 -1676 0
-1674 -1677 0
-1674 -1678 0
-1674 -1679 0
-1674 -1680 0
-1675 -1676 0
-1675 -1677 0
-1675 -1678 0
-1675 -1679 0
-1675 -1680 0
-1676 -1677 0
-1676 -1678 0
-1676 -1679 0
-1676 -1680 0
-1677 -1678 0
-1677 -1679 0
-1677 -1680 0
-1678 -1679 0
-1678 -1680 0
-1679 -1680 0
1681 1682 1683 1684 1685 1686 1687 1688 1689 1690 0
-1681 -1682 0
-1681 -1683 0
-1681 -1684 0
-1681 -1685 0
-1681 -1686 0
-1681 -1687 0
-1681 -1688 0
-1681 -1689 0
-1681 -1690 0
-1682 -1683 0
-1682 -1684 0
-1682 -1685 0
-1682 -1686 0
-1682 -1687 0
-1682 -1688 0
-1682 -1689 0
-1682 -1690 0
-1683 -1684 0
-1683 -1685 0
-1683 -1686 0
-1683 -1687 0
-1683 -1688 0
-1683 -1689 0
-1683 -1690 0
-1684 -1685 0
-1684 -1686 0
-1684 -1687 0
-1684 -1688 0
-1684 -1689 0
-1684 -1690 0
-1685 -1686 0
-1685 -1687 0
-1685 -1688 0
-1685 -1689 0
-1685 -1690 0
-1686 -1687 0
-1686 -1688 0
-1686 -1689 0
-1686 -1690 0
-1687 -1688 0
-1687 -1689 0
-1687 -1690 0
-1688 -1689 0
-1688 -1690 0
-1689 -1690 0
1691 1692 1693 1694 1695 1696 1697 1698 1699 1700 0
-1691 -1692 0
-1691 -1693 0
-1691 -1694 0
-1691 -1695 0
-1691 -1696 0
-1691 -1697 0
-1691 -1698 0
-1691 -1699 0
-1691 -1700 0
-1692 -1693 0
-1692 -1694 0
-1692 -1695 0
-1692 -1696 0
-1692 -1697 0
-1692 -1698 0
-1692 -1699 0
-1692 -1700 0
-1693 -1694 0
-1693 -1695 0
-1693 -1696 0
-1693 -1697 0
-1693 -1698 0
-1693 -1699 0
-1693 -1700 0
-1694 -1695 0
-1694 -1696 0
-1694 -1697 0
-1694 -1698 0
-1694 -1699 0
-1694 -1700 0
-1695 -1696 0
-1695 -1697 0
-1695 -1698 0
-1695 -1699 0
-1695 -1700 0
-1696 -1697 0
-1696 -1698 0
-1696 -1699 0
-1696 -1700 0
-1697 -1698 0
-1697 -1699 0
-1697 -1700 0
-1698 -1699 0
-1698 -1700 0
-1699 -1700 0
1701 1702 1703 1704 1705 1706 1707 1708 1709 1710 0
-1701 -1702 0
-1701 -1703 0
-1701 -1704 0
-1701 -1705 0
-1701 -1706 0
-1701 -1707 0
-1701 -1708 0
-1701 -1709 0
-1701 -1710 0
-1702 -1703 0
-1702 -1704 0
-1702 -1705 0
-1702 -1706 0
-1702 -1707 0
-1702 -1708 0
-1702 -1709 0
-1702 -1710 0
-1703 -1704 0
-1703 -1705 0
-1703 -1706 0
-1703 -1707 0
-1703 -1708 0
-1703 -1709 0
-1703 -1710 0
-1704 -1705 0
-1704 -1706 0
-1704 -1707 0
-1704 -1708 0
-1704 -1709 0
-1704 -1710 0
-1705 -1706 0
-1705 -1707 0
-1705 -1708 0
-1705 -1709 0
-1705 -1710 0
-1706 -1707 0
-1706 -1708 0
-1706 -1709 0
-1706 -1710 0
-1707 -1708 0
-1707 -1709 0
-1707 -1710 0
-1708 -1709 0
-1708 -1710 0
-1709 -1710 0
1711 1712 1713 1714 1715 1716 1717 1718 1719 1720 0
-1711 -1712 0
-1711 -1713 0
-1711 -1714 0
-1711 -1715 0
-1711 -1716 0
-1711 -1717 0
-1711 -1718 0
-1711 -1719 0
-1711 -1720 0
-1712 -1713 0
-1712 -1714 0
-1712 -1715 0
-1712 -1716 0
-1712 -1717 0
-1712 -1718 0
-1712 -1719 0
-1712 -1720 0
-1713 -1714 0
-1713 -1715 0
-1713 -1716 0
-1713 -1717 0
-1713 -1718 0
-1713 -1719 0
-1713 -1720 0
-1714 -1715 0
-1714 -1716 0
-1714 -1717 0
-1714 -1718 0
-1714 -1719 0
-1714 -1720 0
-1715 -1716 0
-1715 -1717 0
-1715 -1718 0
-1715 -1719 0
-1715 -1720 0
-1716 -1717 0
-1716 -1718 0
-1716 -1719 0
-1716 -1720 0
-1717 -1718 0
-1717 -1719 0
-1717 -1720 0
-1718 -1719 0
-1718 -1720 0
-1719 -1720 0
1721 1722 1723 1724 1725 1726 1727 1728 1729 1730 0
-1721 -1722 0
-1721 -1723 0
-1721 -1724 0
-1721 -1725 0
-1721 -1726 0
-1721 -1727 0
-1721 -1728 0
-1721 -1729 0
-1721 -1730 0
-1722 -1723 0
-1722 -1724 0
-1722 -1725 0
-1722 -1726 0
-1722 -1727 0
-1722 -1728 0
-1722 -1729 0
-1722 -1730 0
-1723 -1724 0
-1723 -1725 0
-1723 -1726 0
-1723 -1727 0
-1723 -1728 0
-1723 -1729 0
-1723 -1730 0
-1724 -1725 0
-1724 -1726 0
-1724 -1727 0
-1724 -1728 0
-1724 -1729 0
-1724 -1730 0
-1725 -1726 0
-1725 -1727 0
-1725 -1728 0
-1725 -1729 0
-1725 -1730 0
-1726 -1727 0
-1726 -1728 0
-1726 -1729 0
-1726 -1730 0
-1727 -1728 0
-1727 -1729 0
-1727 -1730 0
-1728 -1729 0
-1728 -1730 0
-1729 -1730 0
1731 1732 1733 1734 1735 1736 1737 1738 1739 1740 0
-1731 -1732 0
-1731 -1733 0
-1731 -1734 0
-1731 -1735 0
-1731 -1736 0
-1731 -1737 0
-1731 -1738 0
-1731 -1739 0
-1731 -1740 0
-1732 -1733 0
-1732 -1734 0
-1732 -1735 0
-1732 -1736 0
-1732 -1737 0
-1732 -1738 0
-1732 -1739 0
-1732 -1740 0
-1733 -1734 0
-1733 -1735 0
-1733 -1736 0
-1733 -1737 0
-1733 -1738 0
-1733 -1739 0
-1733 -1740 0
-1734 -1735 0
-1734 -1736 0
-1734 -1737 0
-1734 -1738 0
-1734 -1739 0
-1734 -1740 0
-1735 -1736 0
-1735 -1737 0
-1735 -1738 0
-1735 -1739 0
-1735 -1740 0
-1736 -1737 0
-1736 -1738 0
-1736 -1739 0
-1736 -1740 0
-1737 -1738 0
-1737 -1739 0
-1737 -1740 0
-1738 -1739 0
-1738 -1740 0
-1739 -1740 0
1741 1742 1743 1744 1745 1746 1747 1748 1749 1750 0
-1741 -1742 0
-1741 -1743 0
-1741 -1744 0
-1741 -1745 0
-1741 -1746 0
-1741 -1747 0
-1741 -1748 0
-1741 -1749 0
-1741 -1750 0
-1742 -1743 0
-1742 -1744 0
-1742 -1745 0
-1742 -1746 0
-1742 -1747 0
-1742 -1748 0
-1742 -1749 0
-1742 -1750 0
-1743 -1744 0
-1743 -1745 0
-1743 -1746 0
-1743 -1747 0
-1743 -1748 0
-1743 -1749 0
-1743 -1750 0
-1744 -1745 0
-1744 -1746 0
-1744 -1747 0
-1744 -1748 0
-1744 -1749 0
-1744 -1750 0
-1745 -1746 0
-1745 -1747 0
-1745 -1748 0
-1745 -1749 0
-1745 -1750 0
-1746 -1747 0
-1746 -1748 0
-1746 -1749 0
-1746 -1750 0
-1747 -1748 0
-1747 -1749 0
-1747 -1750 0
-1748 -1749 0
-1748 -1750 0
-1749 -1750 0
1751 1752 1753 1754 1755 1756 1757 1758 1759 1760 0
-1751 -1752 0
-1751 -1753 0
-1751 -1754 0
-1751 -1755 0
-1751 -1756 0
-1751 -1757 0
-1751 -1758 0
-1751 -1759 0
-1751 -1760 0
-1752 -1753 0
-1752 -1754 0
-1752 -1755 0
-1752 -1756 0
-1752 -1757 0
-1752 -1758 0
-1752 -1759 0
-1752 -1760 0
-1753 -1754 0
-1753 -1755 0
-1753 -1756 0
-1753 -1757 0
-1753 -1758 0
-1753 -1759 0
-1753 -1760 0
-1754 -1755 0
-1754 -1756 0
-1754 -1757 0
-1754 -1758 0
-1754 -1759 0
-1754 -1760 0
-1755 -1756 0
-1755 -1757 0
-1755 -1758 0
-1755 -1759 0
-1755 -1760 0
-1756 -1757 0
-1756 -1758 0
-1756 -1759 0
-1756 -1760 0
-1757 -1758 0
-1757 -1759 0
-1757 -1760 0
-1758 -1759 0
-1758 -1760 0
-1759 -1760 0
1761 1762 1763 1764 1765 1766 1767 1768 1769 1770 0
-1761 -1762 0
-1761 -1763 0
-1761 -1764 0
-1761 -1765 0
-1761 -1766 0
-1761 -1767 0
-1761 -1768 0
-1761 -1769 0
-1761 -1770 0
-1762 -1763 0
-1762 -1764 0
-1762 -1765 0
-1762 -1766 0
-1762 -1767 0
-1762 -1768 0
-1762 -1769 0
-1762 -1770 0
-1763 -1764 0
-1763 -1765 0
-1763 -1766 0
-1763 -1767 0
-1763 -1768 0
-1763 -1769 0
-1763 -1770 0
-1764 -1765 0
-1764 -1766 0
-1764 -1767 0
-1764 -1768 0
-1764 -1769 0
-1764 -1770 0
-1765 -1766 0
-1765 -1767 0
-1765 -1768 0
-1765 -1769 0
-1765 -1770 0
-1766 -1767 0
-1766 -1768 0
-1766 -1769 0
-1766 -1770 0
-1767 -1768 0
-1767 -1769 0
-1767 -1770 0
-1768 -1769 0
-1768 -1770 0
-1769 -1770 0
1771 1772 1773 1774 1775 1776 1777 1778 1779 1780 0
-1771 -1772 0
-1771 -1773 0
-1771 -1774 0
-1771 -1775 0
-1771 -1776 0
-1771 -1777 0
-1771 -1778 0
-1771 -1779 0
-1771 -1780 0
-1772 -1773 0
-1772 -1774 0
-1772 -1775 0
-1772 -1776 0
-1772 -1777 0
-1772 -1778 0
-1772 -1779 0
-1772 -1780 0
-1773 -1774 0
-1773 -1775 0
-1773 -1776 0
-1773 -1777 0
-1773 -1778 0
-1773 -1779 0
-1773 -1780 0
-1774 -1775 0
-1774 -1776 0
-1774 -1777 0
-1774 -1778 0
-1774 -1779 0
-1774 -1780 0
-1775 -1776 0
-1775 -1777 0
-1775 -1778 0
-1775 -1779 0
-1775 -1780 0
-1776 -1777 0
-1776 -1778 0
-1776 -1779 0
-1776 -1780 0
-1777 -1778 0
-1777 -1779 0
-1777 -1780 0
-1778 -1779 0
-1778 -1780 0
-1779 -1780 0
1781 1782 1783 1784 1785 1786 1787 1788 1789 1790 0
-1781 -1782 0
-1781 -1783 0
-1781 -1784 0
-1781 -1785 0
-1781 -1786 0
-1781 -1787 0
-1781 -1788 0
-1781 -1789 0
-1781 -1790 0
-1782 -1783 0
-1782 -1784 0
-1782 -1785 0
-1782 -1786 0
-1782 -1787 0
-1782 -1788 0
-1782 -1789 0
-1782 -1790 0
-1783 -1784 0
-1783 -1785 0
-1783 -1786 0
-1783 -1787 0
-1783 -1788 0
-1783 -1789 0
-1783 -1790 0
-1784 -1785 0
-1784 -1786 0
-1784 -1787 0
-1784 -1788 0
-1784 -1789 0
-1784 -1790 0
-1785 -1786 0
-1785 -1787 0
-1785 -1788 0
-1785 -1789 0
-1785 -1790 0
-1786 -1787 0
-1786 -1788 0
-1786 -1789 0
-1786 -1790 0
-1787 -1788 0
-1787 -1789 0
-1787 -1790 0
-1788 -1789 0
-1788 -1790 0
-1789 -1790 0
1791 1792 1793 1794 1795 1796 1797 1798 1799 1800 0
-1791 -1792 0
-1791 -1793 0
-1791 -1794 0
-1791 -1795 0
-1791 -1796 0
-1791 -1797 0
-1791 -1798 0
-1791 -1799 0
-1791 -1800 0
-1792 -1793 0
-1792 -1794 0
-1792 -1795 0
-1792 -1796 0
-1792 -1797 0
-1792 -1798 0
-1792 -1799 0
-1792 -1800 0
-1793 -1794 0
-1793 -1795 0
-1793 -1796 0
-1793 -1797 0
-1793 -1798 0
-1793 -1799 0
-1793 -1800 0
-1794 -1795 0
-1794 -1796 0
-1794 -1797 0
-1794 -1798 0
-1794 -1799 0
-1794 -1800 0
-1795 -1796 0
-1795 -1797 0
-1795 -1798 0
-1795 -1799 0
-1795 -1800 0
-1796 -1797 0
-1796 -1798 0
-1796 -1799 0
-1796 -1800 0
-1797 -1798 0
-1797 -1799 0
-1797 -1800 0
-1798 -1799 0
-1798 -1800 0
-1799 -1800 0
1801 1802 1803 1804 1805 1806 1807 1808 1809 1810 0
-1801 -1802 0
-1801 -1803 0
-1801 -1804 0
-1801 -1805 0
-1801 -1806 0
-1801 -1807 0
-1801 -1808 0
-1801 -1809 0
-1801 -1810 0
-1802 -1803 0
-1802 -1804 0
-1802 -1805 0
-1802 -1806 0
-1802 -1807 0
-1802 -1808 0
-1802 -1809 0
-1802 -1810 0
-1803 -1804 0
-1803 -1805 0
-1803 -1806 0
-1803 -1807 0
-1803 -1808 0
-1803 -1809 0
-1803 -1810 0
-1804 -1805 0
-1804 -1806 0
-1804 -1807 0
-1804 -1808 0
-1804 -1809 0
-1804 -1810 0
-1805 -1806 0
-1805 -1807 0
-1805 -1808 0
-1805 -1809 0
-1805 -1810 0
-1806 -1807 0
-1806 -1808 0
-1806 -1809 0
-1806 -1810 0
-1807 -1808 0
-1807 -1809 0
-1807 -1810 0
-1808 -1809 0
-1808 -1810 0
-1809 -1810 0
1811 1812 1813 1814 1815 1816 1817 1818 1819 1820 0
-1811 -1812 0
-1811 -1813 0
-1811 -1814 0
-1811 -1815 0
-1811 -1816 0
-1811 -1817 0
-1811 -1818 0
-1811 -1819 0
-1811 -1820 0
-1812 -1813 0
-1812 -1814 0
-1812 -1815 0
-1812 -1816 0
-1812 -1817 0
-1812 -1818 0
-1812 -1819 0
-1812 -1820 0
-1813 -1814 0
-1813 -1815 0
-1813 -1816 0
-1813 -1817 0
-1813 -1818 0
-1813 -1819 0
-1813 -1820 0
-1814 -1815 0
-1814 -1816 0
-1814 -1817 0
-1814 -1818 0
-1814 -1819 0
-1814 -1820 0
-1815 -1816 0
-1815 -1817 0
-1815 -1818 0
-1815 -1819 0
-1815 -1820 0
-1816 -1817 0
-1816 -1818 0
-1816 -1819 0
-1816 -1820 0
-1817 -1818 0
-1817 -1819 0
-1817 -1820 0
-1818 -1819 0
-1818 -1820 0
-1819 -1820 0
1821 1822 1823 1824 1825 1826 1827 1828 1829 1830 0
-1821 -1822 0
-1821 -1823 0
-1821 -1824 0
-1821 -1825 0
-1821 -1826 0
-1821 -1827 0
-1821 -1828 0
-1821 -1829 0
-1821 -1830 0
-1822 -1823 0
-1822 -1824 0
-1822 -1825 0
-1822 -1826 0
-1822 -1827 0
-1822 -1828 0
-1822 -1829 0
-1822 -1830 0
-1823 -1824 0
-1823 -1825 0
-1823 -1826 0
-1823 -1827 0
-1823 -1828 0
-1823 -1829 0
-1823 -1830 0
-1824 -1825 0
-1824 -1826 0
-1824 -1827 0
-1824 -1828 0
-1824 -1829 0
-1824 -1830 0
-1825 -1826 0
-1825 -1827 0
-1825 -1828 0
-1825 -1829 0
-1825 -1830 0
-1826 -1827 0
-1826 -1828 0
-1826 -1829 0
-1826 -1830 0
-1827 -1828 0
-1827 -1829 0
-1827 -1830 0
-1828 -1829 0
-1828 -1830 0
-1829 -1830 0
1831 1832 1833 1834 1835 1836 1837 1838 1839 1840 0
-1831 -1832 0
-1831 -1833 0
-1831 -1834 0
-1831 -1835 0
-1831 -1836 0
-1831 -1837 0
-1831 -1838 0
-1831 -1839 0
-1831 -1840 0
-1832 -1833 0
-1832 -1834 0
-1832 -1835 0
-1832 -1836 0
-1832 -1837 0
-1832 -1838 0
-1832 -1839 0
-1832 -1840 0
-1833 -1834 0
-1833 -1835 0
-1833 -1836 0
-1833 -1837 0
-1833 -1838 0
-1833 -1839 0
-1833 -1840 0
-1834 -1835 0
-1834 -1836 0
-1834 -1837 0
-1834 -1838 0
-1834 -1839 0
-1834 -1840 0
-1835 -1836 0
-1835 -1837 0
-1835 -1838 0
-1835 -1839 0
-1835 -1840 0
-1836 -1837 0
-1836 -1838 0
-1836 -1839 0
-1836 -1840 0
-1837 -1838 0
-1837 -1839 0
-1837 -1840 0
-1838 -1839 0
-1838 -1840 0
-1839 -1840 0
1841 1842 1843 1844 1845 1846 1847 1848 1849 1850 0
-1841 -1842 0
-1841 -1843 0
-1841 -1844 0
-1841 -1845 0
-1841 -1846 0
-1841 -1847 0
-1841 -1848 0
-1841 -1849 0
-1841 -1850 0
-1842 -1843 0
-1842 -1844 0
-1842 -1845 0
-1842 -1846 0
-1842 -1847 0
-1842 -1848 0
-1842 -1849 0
-1842 -1850 0
-1843 -1844 0
-1843 -1845 0
-1843 -1846 0
-1843 -1847 0
-1843 -1848 0
-1843 -1849 0
-1843 -1850 0
-1844 -1845 0
-1844 -1846 0
-1844 -1847 0
-1844 -1848 0
-1844 -1849 0
-1844 -1850 0
-1845 -1846 0
-1845 -1847 0
-1845 -1848 0
-1845 -1849 0
-1845 -1850 0
-1846 -1847 0
-1846 -1848 0
-1846 -1849 0
-1846 -1850 0
-1847 -1848 0
-1847 -1849 0
-1847 -1850 0
-1848 -1849 0
-1848 -1850 0
-1849 -1850 0
1851 1852 1853 1854 1855 1856 1857 1858 1859 1860 0
-1851 -1852 0
-1851 -1853 0
-1851 -1854 0
-1851 -1855 0
-1851 -1856 0
-1851 -1857 0
-1851 -1858 0
-1851 -1859 0
-1851 -1860 0
-1852 -1853 0
-1852 -1854 0
-1852 -1855 0
-1852 -1856 0
-1852 -1857 0
-1852 -1858 0
-1852 -1859 0
-1852 -1860 0
-1853 -1854 0
-1853 -1855 0
-1853 -1856 0
-1853 -1857 0
-1853 -1858 0
-1853 -1859 0
-1853 -1860 0
-1854 -1855 0
-1854 -1856 0
-1854 -1857 0
-1854 -1858 0
-1854 -1859 0
-1854 -1860 0
-1855 -1856 0
-1855 -1857 0
-1855 -1858 0
-1855 -1859 0
-1855 -1860 0
-1856 -1857 0
-1856 -1858 0
-1856 -1859 0
-1856 -1860 0
-1857 -1858 0
-1857 -1859 0
-1857 -1860 0
-1858 -1859 0
-1858 -1860 0
-1859 -1860 0
1861 1862 1863 1864 1865 1866 1867 1868 1869 1870 0
-1861 -1862 0
-1861 -1863 0
-1861 -1864 0
-1861 -1865 0
-1861 -1866 0
-1861 -1867 0
-1861 -1868 0
-1861 -1869 0
-1861 -1870 0
-1862 -1863 0
-1862 -1864 0
-1862 -1865 0
-1862 -1866 0
-1862 -1867 0
-1862 -1868 0
-1862 -1869 0
-1862 -1870 0
-1863 -1864 0
-1863 -1865 0
-1863 -1866 0
-1863 -1867 0
-1863 -1868 0
-1863 -1869 0
-1863 -1870 0
-1864 -1865 0
-1864 -1866 0
-1864 -1867 0
-1864 -1868 0
-1864 -1869 0
-1864 -1870 0
-1865 -1866 0
-1865 -1867 0
-1865 -1868 0
-1865 -1869 0
-1865 -1870 0
-1866 -1867 0
-1866 -1868 0
-1866 -1869 0
-1866 -1870 0
-1867 -1868 0
-1867 -1869 0
-1867 -1870 0
-1868 -1869 0
-1868 -1870 0
-1869 -1870 0
1871 1872 1873 1874 1875 1876 1877 1878 1879 1880 0
-1871 -1872 0
-1871 -1873 0
-1871 -1874 0
-1871 -1875 0
-1871 -1876 0
-1871 -1877 0
-1871 -1878 0
-1871 -1879 0
-1871 -1880 0
-1872 -1873 0
-1872 -1874 0
-1872 -1875 0
-1872 -1876 0
-1872 -1877 0
-1872 -1878 0
-1872 -1879 0
-1872 -1880 0
-1873 -1874 0
-1873 -1875 0
-1873 -1876 0
-1873 -1877 0
-1873 -1878 0
-1873 -1879 0
-1873 -1880 0
-1874 -1875 0
-1874 -1876 0
-1874 -1877 0
-1874 -1878 0
-1874 -1879 0
-1874 -1880 0
-1875 -1876 0
-1875 -1877 0
-1875 -1878 0
-1875 -1879 0
-1875 -1880 0
-1876 -1877 0
-1876 -1878 0
-1876 -1879 0
-1876 -1880 0
-1877 -1878 0
-1877 -1879 0
-1877 -1880 0
-1878 -1879 0
-1878 -1880 0
-1879 -1880 0
1881 1882 1883 1884 1885 1886 1887 1888 1889 1890 0
-1881 -1882 0
-1881 -1883 0
-1881 -1884 0
-1881 -1885 0
-1881 -1886 0
-1881 -1887 0
-1881 -1888 0
-1881 -1889 0
-1881 -1890 0
-1882 -1883 0
-1882 -1884 0
-1882 -1885 0
-1882 -1886 0
-1882 -1887 0
-1882 -1888 0
-1882 -1889 0
-1882 -1890 0
-1883 -1884 0
-1883 -1885 0
-1883 -1886 0
-1883 -1887 0
-1883 -1888 0
-1883 -1889 0
-1883 -1890 0
-1884 -1885 0
-1884 -1886 0
-1884 -1887 0
-1884 -1888 0
-1884 -1889 0
-1884 -1890 0
-1885 -1886 0
-1885 -1887 0
-1885 -1888 0
-1885 -1889 0
-1885 -1890 0
-1886 -1887 0
-1886 -1888 0
-1886 -1889 0
-1886 -1890 0
-1887 -1888 0
-1887 -1889 0
-1887 -1890 0
-1888 -1889 0
-1888 -1890 0
-1889 -1890 0
1891 1892 1893 1894 1895 1896 1897 1898 1899 1900 0
-1891 -1892 0
-1891 -1893 0
-1891 -1894 0
-1891 -1895 0
-1891 -1896 0
-1891 -1897 0
-1891 -1898 0
-1891 -1899 0
-1891 -1900 0
-1892 -1893 0
-1892 -1894 0
-1892 -1895 0
-1892 -1896 0
-1892 -1897 0
-1892 -1898 0
-1892 -1899 0
-1892 -1900 0
-1893 -1894 0
-1893 -1895 0
-1893 -1896 0
-1893 -1897 0
-1893 -1898 0
-1893 -1899 0
-1893 -1900 0
-1894 -1895 0
-1894 -1896 0
-1894 -1897 0
-1894 -1898 0
-1894 -1899 0
-1894 -1900 0
-1895 -1896 0
-1895 -1897 0
-1895 -1898 0
-1895 -1899 0
-1895 -1900 0
-1896 -1897 0
-1896 -1898 0
-1896 -1899 0
-1896 -1900 0
-1897 -1898 0
-1897 -1899 0
-1897 -1900 0
-1898 -1899 0
-1898 -1900 0
-1899 -1900 0
1901 1902 1903 1904 1905 1906 1907 1908 1909 1910 0
-1901 -1902 0
-1901 -1903 0
-1901 -1904 0
-1901 -1905 0
-1901 -1906 0
-1901 -1907 0
-1901 -1908 0
-1901 -1909 0
-1901 -1910 0
-1902 -1903 0
-1902 -1904 0
-1902 -1905 0
-1902 -1906 0
-1902 -1907 0
-1902 -1908 0
-1902 -1909 0
-1902 -1910 0
-1903 -1904 0
-1903 -1905 0
-1903 -1906 0
-1903 -1907 0
-1903 -1908 0
-1903 -1909 0
-1903 -1910 0
-1904 -1905 0
-1904 -1906 0
-1904 -1907 0
-1904 -1908 0
-1904 -1909 0
-1904 -1910 0
-1905 -1906 0
-1905 -1907 0
-1905 -1908 0
-1905 -1909 0
-1905 -1910 0
-1906 -1907 0
-1906 -1908 0
-1906 -1909 0
-1906 -1910 0
-1907 -1908 0
-1907 -1909 0
-1907 -1910 0
-1908 -1909 0
-1908 -1910 0
-1909 -1910 0
1911 1912 1913 1914 1915 1916 1917 1918 1919 1920 0
-1911 -1912 0
-1911 -1913 0
-1911 -1914 0
-1911 -1915 0
-1911 -1916 0
-1911 -1917 0
-1911 -1918 0
-1911 -1919 0
-1911 -1920 0
-1912 -1913 0
-1912 -1914 0
-1912 -1915 0
-1912 -1916 0
-1912 -1917 0
-1912 -1918 0
-1912 -1919 0
-1912 -1920 0
-1913 -1914 0
-1913 -1915 0
-1913 -1916 0
-1913 -1917 0
-1913 -1918 0
-1913 -1919 0
-1913 -1920 0
-1914 -1915 0
-1914 -1916 0
-1914 -1917 0
-1914 -1918 0
-1914 -1919 0
-1914 -1920 0
-1915 -1916 0
-1915 -1917 0
-1915 -1918 0
-1915 -1919 0
-1915 -1920 0
-1916 -1917 0
-1916 -1918 0
-1916 -1919 0
-1916 -1920 0
-1917 -1918 0
-1917 -1919 0
-1917 -1920 0
-1918 -1919 0
-1918 -1920 0
-1919 -1920 0
1921 1922 1923 1924 1925 1926 1927 1928 1929 1930 0
-1921 -1922 0
-1921 -1923 0
-1921 -1924 0
-1921 -1925 0
-1921 -1926 0
-1921 -1927 0
-1921 -1928 0
-1921 -1929 0
-1921 -1930 0
-1922 -1923 0
-1922 -1924 0
-1922 -1925 0
-1922 -1926 0
-1922 -1927 0
-1922 -1928 0
-1922 -1929 0
-1922 -1930 0
-1923 -1924 0
-1923 -1925 0
-1923 -1926 0
-1923 -1927 0
-1923 -1928 0
-1923 -1929 0
-1923 -1930 0
-1924 -1925 0
-1924 -1926 0
-1924 -1927 0
-1924 -1928 0
-1924 -1929 0
-1924 -1930 0
-1925 -1926 0
-1925 -1927 0
-1925 -1928 0
-1925 -1929 0
-1925 -1930 0
-1926 -1927 0
-1926 -1928 0
-1926 -1929 0
-1926 -1930 0
-1927 -1928 0
-1927 -1929 0
-1927 -1930 0
-1928 -1929 0
-1928 -1930 0
-1929 -1930 0
1931 1932 1933 1934 1935 1936 1937 1938 1939 1940 0
-1931 -1932 0
-1931 -1933 0
-1931 -1934 0
-1931 -1935 0
-1931 -1936 0
-1931 -1937 0
-1931 -1938 0
-1931 -1939 0
-1931 -1940 0
-1932 -1933 0
-1932 -1934 0
-1932 -1935 0
-1932 -1936 0
-1932 -1937 0
-1932 -1938 0
-1932 -1939 0
-1932 -1940 0
-1933 -1934 0
-1933 -1935 0
-1933 -1936 0
-1933 -1937 0
-1933 -1938 0
-1933 -1939 0
-1933 -1940 0
-1934 -1935 0
-1934 -1936 0
-1934 -1937 0
-1934 -1938 0
-1934 -1939 0
-1934 -1940 0
-1935 -1936 0
-1935 -1937 0
-1935 -1938 0
-1935 -1939 0
-1935 -1940 0
-1936 -1937 0
-1936 -1938 0
-1936 -1939 0
-1936 -1940 0
-1937 -1938 0
-1937 -1939 0
-1937 -1940 0
-1938 -1939 0
-1938 -1940 0
-1939 -1940 0
1941 1942 1943 1944 1945 1946 1947 1948 1949 1950 0
-1941 -1942 0
-1941 -1943 0
-1941 -1944 0
-1941 -1945 0
-1941 -1946 0
-1941 -1947 0
-1941 -1948 0
-1941 -1949 0
-1941 -1950 0
-1942 -1943 0
-1942 -1944 0
-1942 -1945 0
-1942 -1946 0
-1942 -1947 0
-1942 -1948 0
-1942 -1949 0
-1942 -1950 0
-1943 -1944 0
-1943 -1945 0
-1943 -1946 0
-1943 -1947 0
-1943 -1948 0
-1943 -1949 0
-1943 -1950 0
-1944 -1945 0
-1944 -1946 0
-1944 -1947 0
-1944 -1948 0
-1944 -1949 0
-1944 -1950 0
-1945 -1946 0
-1945 -1947 0
-1945 -1948 0
-1945 -1949 0
-1945 -1950 0
-1946 -1947 0
-1946 -1948 0
-1946 -1949 0
-1946 -1950 0
-1947 -1948 0
-1947 -1949 0
-1947 -1950 0
-1948 -1949 0
-1948 -1950 0
-1949 -1950 0
1951 1952 1953 1954 1955 1956 1957 1958 1959 1960 0
-1951 -1952 0
-1951 -1953 0
-1951 -1954 0
-1951 -1955 0
-1951 -1956 0
-1951 -1957 0
-1951 -1958 0
-1951 -1959 0
-1951 -1960 0
-1952 -1953 0
-1952 -1954 0
-1952 -1955 0
-1952 -1956 0
-1952 -1957 0
-1952 -1958 0
-1952 -1959 0
-1952 -1960 0
-1953 -1954 0
-1953 -1955 0
-1953 -1956 0
-1953 -1957 0
-1953 -1958 0
-1953 -1959 0
-1953 -1960 0
-1954 -1955 0
-1954 -1956 0
-1954 -1957 0
-1954 -1958 0
-1954 -1959 0
-1954 -1960 0
-1955 -1956 0
-1955 -1957 0
-1955 -1958 0
-1955 -1959 0
-1955 -1960 0
-1956 -1957 0
-1956 -1958 0
-1956 -1959 0
-1956 -1960 0
-1957 -1958 0
-1957 -1959 0
-1957 -1960 0
-1958 -1959 0
-1958 -1960 0
-1959 -1960 0
1961 1962 1963 1964 1965 1966 1967 1968 1969 1970 0
-1961 -1962 0
-1961 -1963 0
-1961 -1964 0
-1961 -1965 0
-1961 -1966 0
-1961 -1967 0
-1961 -1968 0
-1961 -1969 0
-1961 -1970 0
-1962 -1963 0
-1962 -1964 0
-1962 -1965 0
-1962 -1966 0
-1962 -1967 0
-1962 -1968 0
-1962 -1969 0
-1962 -1970 0
-1963 -1964 0
-1963 -1965 0
-1963 -1966 0
-1963 -1967 0
-1963 -1968 0
-1963 -1969 0
-1963 -1970 0
-1964 -1965 0
-1964 -1966 0
-1964 -1967 0
-1964 -1968 0
-1964 -1969 0
-1964 -1970 0
-1965 -1966 0
-1965 -1967 0
-1965 -1968 0
-1965 -1969 0
-1965 -1970 0
-1966 -1967 0
-1966 -1968 0
-1966 -1969 0
-1966 -1970 0
-1967 -1968 0
-1967 -1969 0
-1967 -1970 0
-1968 -1969 0
-1968 -1970 0
-1969 -1970 0
1971 1972 1973 1974 1975 1976 1977 1978 1979 1980 0
-1971 -1972 0
-1971 -1973 0
-1971 -1974 0
-1971 -1975 0
-1971 -1976 0
-1971 -1977 0
-1971 -1978 0
-1971 -1979 0
-1971 -1980 0
-1972 -1973 0
-1972 -1974 0
-1972 -1975 0
-1972 -1976 0
-1972 -1977 0
-1972 -1978 0
-1972 -1979 0
-1972 -1980 0
-1973 -1974 0
-1973 -1975 0
-1973 -1976 0
-1973 -1977 0
-1973 -1978 0
-1973 -1979 0
-1973 -1980 0
-1974 -1975 0
-1974 -1976 0
-1974 -1977 0
-1974 -1978 0
-1974 -1979 0
-1974 -1980 0
-1975 -1976 0
-1975 -1977 0
-1975 -1978 0
-1975 -1979 0
-1975 -1980 0
-1976 -1977 0
-1976 -1978 0
-1976 -1979 0
-1976 -1980 0
-1977 -1978 0
-1977 -1979 0
-1977 -1980 0
-1978 -1979 0
-1978 -1980 0
-1979 -1980 0
1981 1982 1983 1984 1985 1986 1987 1988 1989 1990 0
-1981 -1982 0
-1981 -1983 0
-1981 -1984 0
-1981 -1985 0
-1981 -1986 0
-1981 -1987 0
-1981 -1988 0
-1981 -1989 0
-1981 -1990 0
-1982 -1983 0
-1982 -1984 0
-1982 -1985 0
-1982 -1986 0
-1982 -1987 0
-1982 -1988 0
-1982 -1989 0
-1982 -1990 0
-1983 -1984 0
-1983 -1985 0
-1983 -1986 0
-1983 -1987 0
-1983 -1988 0
-1983 -1989 0
-1983 -1990 0
-1984 -1985 0
-1984 -1986 0
-1984 -1987 0
-1984 -1988 0
-1984 -1989 0
-1984 -1990 0
-1985 -1986 0
-1985 -1987 0
-1985 -1988 0
-1985 -1989 0
-1985 -1990 0
-1986 -1987 0
-1986 -1988 0
-1986 -1989 0
-1986 -1990 0
-1987 -1988 0
-1987 -1989 0
-1987 -1990 0
-1988 -1989 0
-1988 -1990 0
-1989 -1990 0
1991 1992 1993 1994 1995 1996 1997 1998 1999 2000 0
-1991 -1992 0
-1991 -1993 0
-1991 -1994 0
-1991 -1995 0
-1991 -1996 0
-1991 -1997 0
-1991 -1998 0
-1991 -1999 0
-1991 -2000 0
-1992 -1993 0
-1992 -1994 0
-1992 -1995 0
-1992 -1996 0
-1992 -1997 0
-1992 -1998 0
-1992 -1999 0
-1992 -2000 0
-1993 -1994 0
-1993 -1995 0
-1993 -1996 0
-1993 -1997 0
-1993 -1998 0
-1993 -1999 0
-1993 -2000 0
-1994 -1995 0
-1994 -1996 0
-1994 -1997 0
-1994 -1998 0
-1994 -1999 0
-1994 -2000 0
-1995 -1996 0
-1995 -1997 0
-1995 -1998 0
-1995 -1999 0
-1995 -2000 0
-1996 -1997 0
-1996 -1998 0
-1996 -1999 0
-1996 -2000 0
-1997 -1998 0
-1997 -1999 0
-1997 -2000 0
-1998 -1999 0
-1998 -2000 0
-1999 -2000 0
2001 2002 2003 2004 2005 2006 2007 2008 2009 2010 0
-2001 -2002 0
-2001 -2003 0
-2001 -2004 0
-2001 -2005 0
-2001 -2006 0
-2001 -2007 0
-2001 -2008 0
-2001 -2009 0
-2001 -2010 0
-2002 -2003 0
-2002 -2004 0
-2002 -2005 0
-2002 -2006 0
-2002 -2007 0
-2002 -2008 0
-2002 -2009 0
-2002 -2010 0
-2003 -2004 0
-2003 -2005 0
-2003 -2006 0
-2003 -2007 0
-2003 -2008 0
-2003 -2009 0
-2003 -2010 0
-2004 -2005 0
-2004 -2006 0
-2004 -2007 0
-2004 -2008 0
-2004 -2009 0
-2004 -2010 0
-2005 -2006 0
-2005 -2007 0
-2005 -2008 0
-2005 -2009 0
-2005 -2010 0
-2006 -2007 0
-2006 -2008 0
-2006 -2009 0
-2006 -2010 0
-2007 -2008 0
-2007 -2009 0
-2007 -2010 0
-2008 -2009 0
-2008 -2010 0
-2009 -2010 0
2011 2012 2013 2014 2015 2016 2017 2018 2019 2020 0
-2011 -2012 0
-2011 -2013 0
-2011 -2014 0
-2011 -2015 0
-2011 -2016 0
-2011 -2017 0
-2011 -2018 0
-2011 -2019 0
-2011 -2020 0
-2012 -2013 0
-2012 -2014 0
-2012 -2015 0
-2012 -2016 0
-2012 -2017 0
-2012 -2018 0
-2012 -2019 0
-2012 -2020 0
-2013 -2014 0
-2013 -2015 0
-2013 -2016 0
-2013 -2017 0
-2013 -2018 0
-2013 -2019 0
-2013 -2020 0
-2014 -2015 0
-2014 -2016 0
-2014 -2017 0
-2014 -2018 0
-2014 -2019 0
-2014 -2020 0
-2015 -2016 0
-2015 -2017 0
-2015 -2018 0
-2015 -2019 0
-2015 -2020 0
-2016 -2017 0
-2016 -2018 0
-2016 -2019 0
-2016 -2020 0
-2017 -2018 0
-2017 -2019 0
-2017 -2020 0
-2018 -2019 0
-2018 -2020 0
-2019 -2020 0
2021 2022 2023 2024 2025 2026 2027 2028 2029 2030 0
-2021 -2022 0
-2021 -2023 0
-2021 -2024 0
-2021 -2025 0
-2021 -2026 0
-2021 -2027 0
-2021 -2028 0
-2021 -2029 0
-2021 -2030 0
-2022 -2023 0
-2022 -2024 0
-2022 -2025 0
-2022 -2026 0
-2022 -2027 0
-2022 -2028 0
-2022 -2029 0
-2022 -2030 0
-2023 -2024 0
-2023 -2025 0
-2023 -2026 0
-2023 -2027 0
-2023 -2028 0
-2023 -2029 0
-2023 -2030 0
-2024 -2025 0
-2024 -2026 0
-2024 -2027 0
-2024 -2028 0
-2024 -2029 0
-2024 -2030 0
-2025 -2026 0
-2025 -2027 0
-2025 -2028 0
-2025 -2029 0
-2025 -2030 0
-2026 -2027 0
-2026 -2028 0
-2026 -2029 0
-2026 -2030 0
-2027 -2028 0
-2027 -2029 0
-2027 -2030 0
-2028 -2029 0
-2028 -2030 0
-2029 -2030 0
2031 2032 2033 2034 2035 2036 2037 2038 2039 2040 0
-2031 -2032 0
-2031 -2033 0
-2031 -2034 0
-2031 -2035 0
-2031 -2036 0
-2031 -2037 0
-2031 -2038 0
-2031 -2039 0
-2031 -2040 0
-2032 -2033 0
-2032 -2034 0
-2032 -2035 0
-2032 -2036 0
-2032 -2037 0
-2032 -2038 0
-2032 -2039 0
-2032 -2040 0
-2033 -2034 0
-2033 -2035 0
-2033 -2036 0
-2033 -2037 0
-2033 -2038 0
-2033 -2039 0
-2033 -2040 0
-2034 -2035 0
-2034 -2036 0
-2034 -2037 0
-2034 -2038 0
-2034 -2039 0
-2034 -2040 0
-2035 -2036 0
-2035 -2037 0
-2035 -2038 0
-2035 -2039 0
-2035 -2040 0
-2036 -2037 0
-2036 -2038 0
-2036 -2039 0
-2036 -2040 0
-2037 -2038 0
-2037 -2039 0
-2037 -2040 0
-2038 -2039 0
-2038 -2040 0
-2039 -2040 0
2041 2042 2043 2044 2045 2046 2047 2048 2049 2050 0
-2041 -2042 0
-2041 -2043 0
-2041 -2044 0
-2041 -2045 0
-2041 -2046 0
-2041 -2047 0
-2041 -2048 0
-2041 -2049 0
-2041 -2050 0
-2042 -2043 0
-2042 -2044 0
-2042 -2045 0
-2042 -2046 0
-2042 -2047 0
-2042 -2048 0
-2042 -2049 0
-2042 -2050 0
-2043 -2044 0
-2043 -2045 0
-2043 -2046 0
-2043 -2047 0
-2043 -2048 0
-2043 -2049 0
-2043 -2050 0
-2044 -2045 0
-2044 -2046 0
-2044 -2047 0
-2044 -2048 0
-2044 -2049 0
-2044 -2050 0
-2045 -2046 0
-2045 -2047 0
-2045 -2048 0
-2045 -2049 0
-2045 -2050 0
-2046 -2047 0
-2046 -2048 0
-2046 -2049 0
-2046 -2050 0
-2047 -2048 0
-2047 -2049 0
-2047 -2050 0
-2048 -2049 0
-2048 -2050 0
-2049 -2050 0
2051 2052 2053 2054 2055 2056 2057 2058 2059 2060 0
-2051 -2052 0
-2051 -2053 0
-2051 -2054 0
-2051 -2055 0
-2051 -2056 0
-2051 -2057 0
-2051 -2058 0
-2051 -2059 0
-2051 -2060 0
-2052 -2053 0
-2052 -2054 0
-2052 -2055 0
-2052 -2056 0
-2052 -2057 0
-2052 -2058 0
-2052 -2059 0
-2052 -2060 0
-2053 -2054 0
-2053 -2055 0
-2053 -2056 0
-2053 -2057 0
-2053 -2058 0
-2053 -2059 0
-2053 -2060 0
-2054 -2055 0
-2054 -2056 0
-2054 -2057 0
-2054 -2058 0
-2054 -2059 0
-2054 -2060 0
-2055 -2056 0
-2055 -2057 0
-2055 -2058 0
-2055 -2059 0
-2055 -2060 0
-2056 -2057 0
-2056 -2058 0
-2056 -2059 0
-2056 -2060 0
-2057 -2058 0
-2057 -2059 0
-2057 -2060 0
-2058 -2059 0
-2058 -2060 0
-2059 -2060 0
2061 2062 2063 2064 2065 2066 2067 2068 2069 2070 0
-2061 -2062 0
-2061 -2063 0
-2061 -2064 0
-2061 -2065 0
-2061 -2066 0
-2061 -2067 0
-2061 -2068 0
-2061 -2069 0
-2061 -2070 0
-2062 -2063 0
-2062 -2064 0
-2062 -2065 0
-2062 -2066 0
-2062 -2067 0
-2062 -2068 0
-2062 -2069 0
-2062 -2070 0
-2063 -2064 0
-2063 -2065 0
-2063 -2066 0
-2063 -2067 0
-2063 -2068 0
-2063 -2069 0
-2063 -2070 0
-2064 -2065 0
-2064 -2066 0
-2064 -2067 0
-2064 -2068 0
-2064 -2069 0
-2064 -2070 0
-2065 -2066 0
-2065 -2067 0
-2065 -2068 0
-2065 -2069 0
-2065 -2070 0
-2066 -2067 0
-2066 -2068 0
-2066 -2069 0
-2066 -2070 0
-2067 -2068 0
-2067 -2069 0
-2067 -2070 0
-2068 -2069 0
-2068 -2070 0
-2069 -2070 0
2071 2072 2073 2074 2075 2076 2077 2078 2079 2080 0
-2071 -2072 0
-2071 -2073 0
-2071 -2074 0
-2071 -2075 0
-2071 -2076 0
-2071 -2077 0
-2071 -2078 0
-2071 -2079 0
-2071 -2080 0
-2072 -2073 0
-2072 -2074 0
-2072 -2075 0
-2072 -2076 0
-2072 -2077 0
-2072 -2078 0
-2072 -2079 0
-2072 -2080 0
-2073 -2074 0
-2073 -2075 0
-2073 -2076 0
-2073 -2077 0
-2073 -2078 0
-2073 -2079 0
-2073 -2080 0
-2074 -2075 0
-2074 -2076 0
-2074 -2077 0
-2074 -2078 0
-2074 -2079 0
-2074 -2080 0
-2075 -2076 0
-2075 -2077 0
-2075 -2078 0
-2075 -2079 0
-2075 -2080 0
-2076 -2077 0
-2076 -2078 0
-2076 -2079 0
-2076 -2080 0
-2077 -2078 0
-2077 -2079 0
-2077 -2080 0
-2078 -2079 0
-2078 -2080 0
-2079 -2080 0
2081 2082 2083 2084 2085 2086 2087 2088 2089 2090 0
-2081 -2082 0
-2081 -2083 0
-2081 -2084 0
-2081 -2085 0
-2081 -2086 0
-2081 -2087 0
-2081 -2088 0
-2081 -2089 0
-2081 -2090 0
-2082 -2083 0
-2082 -2084 0
-2082 -2085 0
-2082 -2086 0
-2082 -2087 0
-2082 -2088 0
-2082 -2089 0
-2082 -2090 0
-2083 -2084 0
-2083 -2085 0
-2083 -2086 0
-2083 -2087 0
-2083 -2088 0
-2083 -2089 0
-2083 -2090 0
-2084 -2085 0
-2084 -2086 0
-2084 -2087 0
-2084 -2088 0
-2084 -2089 0
-2084 -2090 0
-2085 -2086 0
-2085 -2087 0
-2085 -2088 0
-2085 -2089 0
-2085 -2090 0
-2086 -2087 0
-2086 -2088 0
-2086 -2089 0
-2086 -2090 0
-2087 -2088 0
-2087 -2089 0
-2087 -2090 0
-2088 -2089 0
-2088 -2090 0
-2089 -2090 0
2091 2092 2093 2094 2095 2096 2097 2098 2099 2100 0
-2091 -2092 0
-2091 -2093 0
-2091 -2094 0
-2091 -2095 0
-2091 -2096 0
-2091 -2097 0
-2091 -2098 0
-2091 -2099 0
-2091 -2100 0
-2092 -2093 0
-2092 -2094 0
-2092 -2095 0
-2092 -2096 0
-2092 -2097 0
-2092 -2098 0
-2092 -2099 0
-2092 -2100 0
-2093 -2094 0
-2093 -2095 0
-2093 -2096 0
-2093 -2097 0
-2093 -2098 0
-2093 -2099 0
-2093 -2100 0
-2094 -2095 0
-2094 -2096 0
-2094 -2097 0
-2094 -2098 0
-2094 -2099 0
-2094 -2100 0
-2095 -2096 0
-2095 -2097 0
-2095 -2098 0
-2095 -2099 0
-2095 -2100 0
-2096 -2097 0
-2096 -2098 0
-2096 -2099 0
-2096 -2100 0
-2097 -2098 0
-2097 -2099 0
-2097 -2100 0
-2098 -2099 0
-2098 -2100 0
-2099 -2100 0
2101 2102 2103 2104 2105 2106 2107 2108 2109 2110 0
-2101 -2102 0
-2101 -2103 0
-2101 -2104 0
-2101 -2105 0
-2101 -2106 0
-2101 -2107 0
-2101 -2108 0
-2101 -2109 0
-2101 -2110 0
-2102 -2103 0
-2102 -2104 0
-2102 -2105 0
-2102 -2106 0
-2102 -2107 0
-2102 -2108 0
-2102 -2109 0
-2102 -2110 0
-2103 -2104 0
-2103 -2105 0
-2103 -2106 0
-2103 -2107 0
-2103 -2108 0
-2103 -2109 0
-2103 -2110 0
-2104 -2105 0
-2104 -2106 0
-2104 -2107 0
-2104 -2108 0
-2104 -2109 0
-2104 -2110 0
-2105 -2106 0
-2105 -2107 0
-2105 -2108 0
-2105 -2109 0
-2105 -2110 0
-2106 -2107 0
-2106 -2108 0
-2106 -2109 0
-2106 -2110 0
-2107 -2108 0
-2107 -2109 0
-2107 -2110 0
-2108 -2109 0
-2108 -2110 0
-2109 -2110 0
2111 2112 2113 2114 2115 2116 2117 2118 2119 2120 0
-2111 -2112 0
-2111 -2113 0
-2111 -2114 0
-2111 -2115 0
-2111 -2116 0
-2111 -2117 0
-2111 -2118 0
-2111 -2119 0
-2111 -2120 0
-2112 -2113 0
-2112 -2114 0
-2112 -2115 0
-2112 -2116 0
-2112 -2117 0
-2112 -2118 0
-2112 -2119 0
-2112 -2120 0
-2113 -2114 0
-2113 -2115 0
-2113 -2116 0
-2113 -2117 0
-2113 -2118 0
-2113 -2119 0
-2113 -2120 0
-2114 -2115 0
-2114 -2116 0
-2114 -2117 0
-2114 -2118 0
-2114 -2119 0
-2114 -2120 0
-2115 -2116 0
-2115 -2117 0
-2115 -2118 0
-2115 -2119 0
-2115 -2120 0
-2116 -2117 0
-2116 -2118 0
-2116 -2119 0
-2116 -2120 0
-2117 -2118 0
-2117 -2119 0
-2117 -2120 0
-2118 -2119 0
-2118 -2120 0
-2119 -2120 0
2121 2122 2123 2124 2125 2126 2127 2128 2129 2130 0
-2121 -2122 0
-2121 -2123 0
-2121 -2124 0
-2121 -2125 0
-2121 -2126 0
-2121 -2127 0
-2121 -2128 0
-2121 -2129 0
-2121 -2130 0
-2122 -2123 0
-2122 -2124 0
-2122 -2125 0
-2122 -2126 0
-2122 -2127 0
-2122 -2128 0
-2122 -2129 0
-2122 -2130 0
-2123 -2124 0
-2123 -2125 0
-2123 -2126 0
-2123 -2127 0
-2123 -2128 0
-2123 -2129 0
-2123 -2130 0
-2124 -2125 0
-2124 -2126 0
-2124 -2127 0
-2124 -2128 0
-2124 -2129 0
-2124 -2130 0
-2125 -2126 0
-2125 -2127 0
-2125 -2128 0
-2125 -2129 0
-2125 -2130 0
-2126 -2127 0
-2126 -2128 0
-2126 -2129 0
-2126 -2130 0
-2127 -2128 0
-2127 -2129 0
-2127 -2130 0
-2128 -2129 0
-2128 -2130 0
-2129 -2130 0
2131 2132 2133 2134 2135 2136 2137 2138 2139 2140 0
-2131 -2132 0
-2131 -2133 0
-2131 -2134 0
-2131 -2135 0
-2131 -2136 0
-2131 -2137 0
-2131 -2138 0
-2131 -2139 0
-2131 -2140 0
-2132 -2133 0
-2132 -2134 0
-2132 -2135 0
-2132 -2136 0
-2132 -2137 0
-2132 -2138 0
-2132 -2139 0
-2132 -2140 0
-2133 -2134 0
-2133 -2135 0
-2133 -2136 0
-2133 -2137 0
-2133 -2138 0
-2133 -2139 0
-2133 -2140 0
-2134 -2135 0
-2134 -2136 0
-2134 -2137 0
-2134 -2138 0
-2134 -2139 0
-2134 -2140 0
-2135 -2136 0
-2135 -2137 0
-2135 -2138 0
-2135 -2139 0
-2135 -2140 0
-2136 -2137 0
-2136 -2138 0
-2136 -2139 0
-2136 -2140 0
-2137 -2138 0
-2137 -2139 0
-2137 -2140 0
-2138 -2139 0
-2138 -2140 0
-2139 -2140 0
2141 2142 2143 2144 2145 2146 2147 2148 2149 2150 0
-2141 -2142 0
-2141 -2143 0
-2141 -2144 0
-2141 -2145 0
-2141 -2146 0
-2141 -2147 0
-2141 -2148 0
-2141 -2149 0
-2141 -2150 0
-2142 -2143 0
-2142 -2144 0
-2142 -2145 0
-2142 -2146 0
-2142 -2147 0
-2142 -2148 0
-2142 -2149 0
-2142 -2150 0
-2143 -2144 0
-2143 -2145 0
-2143 -2146 0
-2143 -2147 0
-2143 -2148 0
-2143 -2149 0
-2143 -2150 0
-2144 -2145 0
-2144 -2146 0
-2144 -2147 0
-2144 -2148 0
-2144 -2149 0
-2144 -2150 0
-2145 -2146 0
-2145 -2147 0
-2145 -2148 0
-2145 -2149 0
-2145 -2150 0
-2146 -2147 0
-2146 -2148 0
-2146 -2149 0
-2146 -2150 0
-2147 -2148 0
-2147 -2149 0
-2147 -2150 0
-2148 -2149 0
-2148 -2150 0
-2149 -2150 0
2151 2152 2153 2154 2155 2156 2157 2158 2159 2160 0
-2151 -2152 0
-2151 -2153 0
-2151 -2154 0
-2151 -2155 0
-2151 -2156 0
-2151 -2157 0
-2151 -2158 0
-2151 -2159 0
-2151 -2160 0
-2152 -2153 0
-2152 -2154 0
-2152 -2155 0
-2152 -2156 0
-2152 -2157 0
-2152 -2158 0
-2152 -2159 0
-2152 -2160 0
-2153 -2154 0
-2153 -2155 0
-2153 -2156 0
-2153 -2157 0
-2153 -2158 0
-2153 -2159 0
-2153 -2160 0
-2154 -2155 0
-2154 -2156 0
-2154 -2157 0
-2154 -2158 0
-2154 -2159 0
-2154 -2160 0
-2155 -2156 0
-2155 -2157 0
-2155 -2158 0
-2155 -2159 0
-2155 -2160 0
-2156 -2157 0
-2156 -2158 0
-2156 -2159 0
-2156 -2160 0
-2157 -2158 0
-2157 -2159 0
-2157 -2160 0
-2158 -2159 0
-2158 -2160 0
-2159 -2160 0
2161 2162 2163 2164 2165 2166 2167 2168 2169 2170 0
-2161 -2162 0
-2161 -2163 0
-2161 -2164 0
-2161 -2165 0
-2161 -2166 0
-2161 -2167 0
-2161 -2168 0
-2161 -2169 0
-2161 -2170 0
-2162 -2163 0
-2162 -2164 0
-2162 -2165 0
-2162 -2166 0
-2162 -2167 0
-2162 -2168 0
-2162 -2169 0
-2162 -2170 0
-2163 -2164 0
-2163 -2165 0
-2163 -2166 0
-2163 -2167 0
-2163 -2168 0
-2163 -2169 0
-2163 -2170 0
-2164 -2165 0
-2164 -2166 0
-2164 -2167 0
-2164 -2168 0
-2164 -2169 0
-2164 -2170 0
-2165 -2166 0
-2165 -2167 0
-2165 -2168 0
-2165 -2169 0
-2165 -2170 0
-2166 -2167 0
-2166 -2168 0
-2166 -2169 0
-2166 -2170 0
-2167 -2168 0
-2167 -2169 0
-2167 -2170 0
-2168 -2169 0
-2168 -2170 0
-2169 -2170 0
2171 2172 2173 2174 2175 2176 2177 2178 2179 2180 0
-2171 -2172 0
-2171 -2173 0
-2171 -2174 0
-2171 -2175 0
-2171 -2176 0
-2171 -2177 0
-2171 -2178 0
-2171 -2179 0
-2171 -2180 0
-2172 -2173 0
-2172 -2174 0
-2172 -2175 0
-2172 -2176 0
-2172 -2177 0
-2172 -2178 0
-2172 -2179 0
-2172 -2180 0
-2173 -2174 0
-2173 -2175 0
-2173 -2176 0
-2173 -2177 0
-2173 -2178 0
-2173 -2179 0
-2173 -2180 0
-2174 -2175 0
-2174 -2176 0
-2174 -2177 0
-2174 -2178 0
-2174 -2179 0
-2174 -2180 0
-2175 -2176 0
-2175 -2177 0
-2175 -2178 0
-2175 -2179 0
-2175 -2180 0
-2176 -2177 0
-2176 -2178 0
-2176 -2179 0
-2176 -2180 0
-2177 -2178 0
-2177 -2179 0
-2177 -2180 0
-2178 -2179 0
-2178 -2180 0
-2179 -2180 0
2181 2182 2183 2184 2185 2186 2187 2188 2189 2190 0
-2181 -2182 0
-2181 -2183 0
-2181 -2184 0
-2181 -2185 0
-2181 -2186 0
-2181 -2187 0
-2181 -2188 0
-2181 -2189 0
-2181 -2190 0
-2182 -2183 0
-2182 -2184 0
-2182 -2185 0
-2182 -2186 0
-2182 -2187 0
-2182 -2188 0
-2182 -2189 0
-2182 -2190 0
-2183 -2184 0
-2183 -2185 0
-2183 -2186 0
-2183 -2187 0
-2183 -2188 0
-2183 -2189 0
-2183 -2190 0
-2184 -2185 0
-2184 -2186 0
-2184 -2187 0
-2184 -2188 0
-2184 -2189 0
-2184 -2190 0
-2185 -2186 0
-2185 -2187 0
-2185 -2188 0
-2185 -2189 0
-2185 -2190 0
-2186 -2187 0
-2186 -2188 0
-2186 -2189 0
-2186 -2190 0
-2187 -2188 0
-2187 -2189 0
-2187 -2190 0
-2188 -2189 0
-2188 -2190 0
-2189 -2190 0
2191 2192 2193 2194 2195 2196 2197 2198 2199 2200 0
-2191 -2192 0
-2191 -2193 0
-2191 -2194 0
-2191 -2195 0
-2191 -2196 0
-2191 -2197 0
-2191 -2198 0
-2191 -2199 0
-2191 -2200 0
-2192 -2193 0
-2192 -2194 0
-2192 -2195 0
-2192 -2196 0
-2192 -2197 0
-2192 -2198 0
-2192 -2199 0
-2192 -2200 0
-2193 -2194 0
-2193 -2195 0
-2193 -2196 0
-2193 -2197 0
-2193 -2198 0
-2193 -2199 0
-2193 -2200 0
-2194 -2195 0
-2194 -2196 0
-2194 -2197 0
-2194 -2198 0
-2194 -2199 0
-2194 -2200 0
-2195 -2196 0
-2195 -2197 0
-2195 -2198 0
-2195 -2199 0
-2195 -2200 0
-2196 -2197 0
-2196 -2198 0
-2196 -2199 0
-2196 -2200 0
-2197 -2198 0
-2197 -2199 0
-2197 -2200 0
-2198 -2199 0
-2198 -2200 0
-2199 -2200 0
2201 2202 2203 2204 2205 2206 2207 2208 2209 2210 0
-2201 -2202 0
-2201 -2203 0
-2201 -2204 0
-2201 -2205 0
-2201 -2206 0
-2201 -2207 0
-2201 -2208 0
-2201 -2209 0
-2201 -2210 0
-2202 -2203 0
-2202 -2204 0
-2202 -2205 0
-2202 -2206 0
-2202 -2207 0
-2202 -2208 0
-2202 -2209 0
-2202 -2210 0
-2203 -2204 0
-2203 -2205 0
-2203 -2206 0
-2203 -2207 0
-2203 -2208 0
-2203 -2209 0
-2203 -2210 0
-2204 -2205 0
-2204 -2206 0
-2204 -2207 0
-2204 -2208 0
-2204 -2209 0
-2204 -2210 0
-2205 -2206 0
-2205 -2207 0
-2205 -2208 0
-2205 -2209 0
-2205 -2210 0
-2206 -2207 0
-2206 -2208 0
-2206 -2209 0
-2206 -2210 0
-2207 -2208 0
-2207 -2209 0
-2207 -2210 0
-2208 -2209 0
-2208 -2210 0
-2209 -2210 0
2211 2212 2213 2214 2215 2216 2217 2218 2219 2220 0
-2211 -2212 0
-2211 -2213 0
-2211 -2214 0
-2211 -2215 0
-2211 -2216 0
-2211 -2217 0
-2211 -2218 0
-2211 -2219 0
-2211 -2220 0
-2212 -2213 0
-2212 -2214 0
-2212 -2215 0
-2212 -2216 0
-2212 -2217 0
-2212 -2218 0
-2212 -2219 0
-2212 -2220 0
-2213 -2214 0
-2213 -2215 0
-2213 -2216 0
-2213 -2217 0
-2213 -2218 0
-2213 -2219 0
-2213 -2220 0
-2214 -2215 0
-2214 -2216 0
-2214 -2217 0
-2214 -2218 0
-2214 -2219 0
-2214 -2220 0
-2215 -2216 0
-2215 -2217 0
-2215 -2218 0
-2215 -2219 0
-2215 -2220 0
-2216 -2217 0
-2216 -2218 0
-2216 -2219 0
-2216 -2220 0
-2217 -2218 0
-2217 -2219 0
-2217 -2220 0
-2218 -2219 0
-2218 -2220 0
-2219 -2220 0
2221 2222 2223 2224 2225 2226 2227 2228 2229 2230 0
-2221 -2222 0
-2221 -2223 0
-2221 -2224 0
-2221 -2225 0
-2221 -2226 0
-2221 -2227 0
-2221 -2228 0
-2221 -2229 0
-2221 -2230 0
-2222 -2223 0
-2222 -2224 0
-2222 -2225 0
-2222 -2226 0
-2222 -2227 0
-2222 -2228 0
-2222 -2229 0
-2222 -2230 0
-2223 -2224 0
-2223 -2225 0
-2223 -2226 0
-2223 -2227 0
-2223 -2228 0
-2223 -2229 0
-2223 -2230 0
-2224 -2225 0
-2224 -2226 0
-2224 -2227 0
-2224 -2228 0
-2224 -2229 0
-2224 -2230 0
-2225 -2226 0
-2225 -2227 0
-2225 -2228 0
-2225 -2229 0
-2225 -2230 0
-2226 -2227 0
-2226 -2228 0
-2226 -2229 0
-2226 -2230 0
-2227 -2228 0
-2227 -2229 0
-2227 -2230 0
-2228 -2229 0
-2228 -2230 0
-2229 -2230 0
2231 2232 2233 2234 2235 2236 2237 2238 2239 2240 0
-2231 -2232 0
-2231 -2233 0
-2231 -2234 0
-2231 -2235 0
-2231 -2236 0
-2231 -2237 0
-2231 -2238 0
-2231 -2239 0
-2231 -2240 0
-2232 -2233 0
-2232 -2234 0
-2232 -2235 0
-2232 -2236 0
-2232 -2237 0
-2232 -2238 0
-2232 -2239 0
-2232 -2240 0
-2233 -2234 0
-2233 -2235 0
-2233 -2236 0
-2233 -2237 0
-2233 -2238 0
-2233 -2239 0
-2233 -2240 0
-2234 -2235 0
-2234 -2236 0
-2234 -2237 0
-2234 -2238 0
-2234 -2239 0
-2234 -2240 0
-2235 -2236 0
-2235 -2237 0
-2235 -2238 0
-2235 -2239 0
-2235 -2240 0
-2236 -2237 0
-2236 -2238 0
-2236 -2239 0
-2236 -2240 0
-2237 -2238 0
-2237 -2239 0
-2237 -2240 0
-2238 -2239 0
-2238 -2240 0
-2239 -2240 0
2241 2242 2243 2244 2245 2246 2247 2248 2249 2250 0
-2241 -2242 0
-2241 -2243 0
-2241 -2244 0
-2241 -2245 0
-2241 -2246 0
-2241 -2247 0
-2241 -2248 0
-2241 -2249 0
-2241 -2250 0
-2242 -2243 0
-2242 -2244 0
-2242 -2245 0
-2242 -2246 0
-2242 -2247 0
-2242 -2248 0
-2242 -2249 0
-2242 -2250 0
-2243 -2244 0
-2243 -2245 0
-2243 -2246 0
-2243 -2247 0
-2243 -2248 0
-2243 -2249 0
-2243 -2250 0
-2244 -2245 0
-2244 -2246 0
-2244 -2247 0
-2244 -2248 0
-2244 -2249 0
-2244 -2250 0
-2245 -2246 0
-2245 -2247 0
-2245 -2248 0
-2245 -2249 0
-2245 -2250 0
-2246 -2247 0
-2246 -2248 0
-2246 -2249 0
-2246 -2250 0
-2247 -2248 0
-2247 -2249 0
-2247 -2250 0
-2248 -2249 0
-2248 -2250 0
-2249 -2250 0
2251 2252 2253 2254 2255 2256 2257 2258 2259 2260 0
-2251 -2252 0
-2251 -2253 0
-2251 -2254 0
-2251 -2255 0
-2251 -2256 0
-2251 -2257 0
-2251 -2258 0
-2251 -2259 0
-2251 -2260 0
-2252 -2253 0
-2252 -2254 0
-2252 -2255 0
-2252 -2256 0
-2252 -2257 0
-2252 -2258 0
-2252 -2259 0
-2252 -2260 0
-2253 -2254 0
-2253 -2255 0
-2253 -2256 0
-2253 -2257 0
-2253 -2258 0
-2253 -2259 0
-2253 -2260 0
-2254 -2255 0
-2254 -2256 0
-2254 -2257 0
-2254 -2258 0
-2254 -2259 0
-2254 -2260 0
-2255 -2256 0
-2255 -2257 0
-2255 -2258 0
-2255 -2259 0
-2255 -2260 0
-2256 -2257 0
-2256 -2258 0
-2256 -2259 0
-2256 -2260 0
-2257 -2258 0
-2257 -2259 0
-2257 -2260 0
-2258 -2259 0
-2258 -2260 0
-2259 -2260 0
2261 2262 2263 2264 2265 2266 2267 2268 2269 2270 0
-2261 -2262 0
-2261 -2263 0
-2261 -2264 0
-2261 -2265 0
-2261 -2266 0
-2261 -2267 0
-2261 -2268 0
-2261 -2269 0
-2261 -2270 0
-2262 -2263 0
-2262 -2264 0
-2262 -2265 0
-2262 -2266 0
-2262 -2267 0
-2262 -2268 0
-2262 -2269 0
-2262 -2270 0
-2263 -2264 0
-2263 -2265 0
-2263 -2266 0
-2263 -2267 0
-2263 -2268 0
-2263 -2269 0
-2263 -2270 0
-2264 -2265 0
-2264 -2266 0
-2264 -2267 0
-2264 -2268 0
-2264 -2269 0
-2264 -2270 0
-2265 -2266 0
-2265 -2267 0
-2265 -2268 0
-2265 -2269 0
-2265 -2270 0
-2266 -2267 0
-2266 -2268 0
-2266 -2269 0
-2266 -2270 0
-2267 -2268 0
-2267 -2269 0
-2267 -2270 0
-2268 -2269 0
-2268 -2270 0
-2269 -2270 0
2271 2272 2273 2274 2275 2276 2277 2278 2279 2280 0
-2271 -2272 0
-2271 -2273 0
-2271 -2274 0
-2271 -2275 0
-2271 -2276 0
-2271 -2277 0
-2271 -2278 0
-2271 -2279 0
-2271 -2280 0
-2272 -2273 0
-2272 -2274 0
-2272 -2275 0
-2272 -2276 0
-2272 -2277 0
-2272 -2278 0
-2272 -2279 0
-2272 -2280 0
-2273 -2274 0
-2273 -2275 0
-2273 -2276 0
-2273 -2277 0
-2273 -2278 0
-2273 -2279 0
-2273 -2280 0
-2274 -2275 0
-2274 -2276 0
-2274 -2277 0
-2274 -2278 0
-2274 -2279 0
-2274 -2280 0
-2275 -2276 0
-2275 -2277 0
-2275 -2278 0
-2275 -2279 0
-2275 -2280 0
-2276 -2277 0
-2276 -2278 0
-2276 -2279 0
-2276 -2280 0
-2277 -2278 0
-2277 -2279 0
-2277 -2280 0
-2278 -2279 0
-2278 -2280 0
-2279 -2280 0
2281 2282 2283 2284 2285 2286 2287 2288 2289 2290 0
-2281 -2282 0
-2281 -2283 0
-2281 -2284 0
-2281 -2285 0
-2281 -2286 0
-2281 -2287 0
-2281 -2288 0
-2281 -2289 0
-2281 -2290 0
-2282 -2283 0
-2282 -2284 0
-2282 -2285 0
-2282 -2286 0
-2282 -2287 0
-2282 -2288 0
-2282 -2289 0
-2282 -2290 0
-2283 -2284 0
-2283 -2285 0
-2283 -2286 0
-2283 -2287 0
-2283 -2288 0
-2283 -2289 0
-2283 -2290 0
-2284 -2285 0
-2284 -2286 0
-2284 -2287 0
-2284 -2288 0
-2284 -2289 0
-2284 -2290 0
-2285 -2286 0
-2285 -2287 0
-2285 -2288 0
-2285 -2289 0
-2285 -2290 0
-2286 -2287 0
-2286 -2288 0
-2286 -2289 0
-2286 -2290 0
-2287 -2288 0
-2287 -2289 0
-2287 -2290 0
-2288 -2289 0
-2288 -2290 0
-2289 -2290 0
2291 2292 2293 2294 2295 2296 2297 2298 2299 2300 0
-2291 -2292 0
-2291 -2293 0
-2291 -2294 0
-2291 -2295 0
-2291 -2296 0
-2291 -2297 0
-2291 -2298 0
-2291 -2299 0
-2291 -2300 0
-2292 -2293 0
-2292 -2294 0
-2292 -2295 0
-2292 -2296 0
-2292 -2297 0
-2292 -2298 0
-2292 -2299 0
-2292 -2300 0
-2293 -2294 0
-2293 -2295 0
-2293 -2296 0
-2293 -2297 0
-2293 -2298 0
-2293 -2299 0
-2293 -2300 0
-2294 -2295 0
-2294 -2296 0
-2294 -2297 0
-2294 -2298 0
-2294 -2299 0
-2294 -2300 0
-2295 -2296 0
-2295 -2297 0
-2295 -2298 0
-2295 -2299 0
-2295 -2300 0
-2296 -2297 0
-2296 -2298 0
-2296 -2299 0
-2296 -2300 0
-2297 -2298 0
-2297 -2299 0
-2297 -2300 0
-2298 -2299 0
-2298 -2300 0
-2299 -2300 0
2301 2302 2303 2304 2305 2306 2307 2308 2309 2310 0
-2301 -2302 0
-2301 -2303 0
-2301 -2304 0
-2301 -2305 0
-2301 -2306 0
-2301 -2307 0
-2301 -2308 0
-2301 -2309 0
-2301 -2310 0
-2302 -2303 0
-2302 -2304 0
-2302 -2305 0
-2302 -2306 0
-2302 -2307 0
-2302 -2308 0
-2302 -2309 0
-2302 -2310 0
-2303 -2304 0
-2303 -2305 0
-2303 -2306 0
-2303 -2307 0
-2303 -2308 0
-2303 -2309 0
-2303 -2310 0
-2304 -2305 0
-2304 -2306 0
-2304 -2307 0
-2304 -2308 0
-2304 -2309 0
-2304 -2310 0
-2305 -2306 0
-2305 -2307 0
-2305 -2308 0
-2305 -2309 0
-2305 -2310 0
-2306 -2307 0
-2306 -2308 0
-2306 -2309 0
-2306 -2310 0
-2307 -2308 0
-2307 -2309 0
-2307 -2310 0
-2308 -2309 0
-2308 -2310 0
-2309 -2310 0
2311 2312 2313 2314 2315 2316 2317 2318 2319 2320 0
-2311 -2312 0
-2311 -2313 0
-2311 -2314 0
-2311 -2315 0
-2311 -2316 0
-2311 -2317 0
-2311 -2318 0
-2311 -2319 0
-2311 -2320 0
-2312 -2313 0
-2312 -2314 0
-2312 -2315 0
-2312 -2316 0
-2312 -2317 0
-2312 -2318 0
-2312 -2319 0
-2312 -2320 0
-2313 -2314 0
-2313 -2315 0
-2313 -2316 0
-2313 -2317 0
-2313 -2318 0
-2313 -2319 0
-2313 -2320 0
-2314 -2315 0
-2314 -2316 0
-2314 -2317 0
-2314 -2318 0
-2314 -2319 0
-2314 -2320 0
-2315 -2316 0
-2315 -2317 0
-2315 -2318 0
-2315 -2319 0
-2315 -2320 0
-2316 -2317 0
-2316 -2318 0
-2316 -2319 0
-2316 -2320 0
-2317 -2318 0
-2317 -2319 0
-2317 -2320 0
-2318 -2319 0
-2318 -2320 0
-2319 -2320 0
2321 2322 2323 2324 2325 2326 2327 2328 2329 2330 0
-2321 -2322 0
-2321 -2323 0
-2321 -2324 0
-2321 -2325 0
-2321 -2326 0
-2321 -2327 0
-2321 -2328 0
-2321 -2329 0
-2321 -2330 0
-2322 -2323 0
-2322 -2324 0
-2322 -2325 0
-2322 -2326 0
-2322 -2327 0
-2322 -2328 0
-2322 -2329 0
-2322 -2330 0
-2323 -2324 0
-2323 -2325 0
-2323 -2326 0
-2323 -2327 0
-2323 -2328 0
-2323 -2329 0
-2323 -2330 0
-2324 -2325 0
-2324 -2326 0
-2324 -2327 0
-2324 -2328 0
-2324 -2329 0
-2324 -2330 0
-2325 -2326 0
-2325 -2327 0
-2325 -2328 0
-2325 -2329 0
-2325 -2330 0
-2326 -2327 0
-2326 -2328 0
-2326 -2329 0
-2326 -2330 0
-2327 -2328 0
-2327 -2329 0
-2327 -2330 0
-2328 -2329 0
-2328 -2330 0
-2329 -2330 0
2331 2332 2333 2334 2335 2336 2337 2338 2339 2340 0
-2331 -2332 0
-2331 -2333 0
-2331 -2334 0
-2331 -2335 0
-2331 -2336 0
-2331 -2337 0
-2331 -2338 0
-2331 -2339 0
-2331 -2340 0
-2332 -2333 0
-2332 -2334 0
-2332 -2335 0
-2332 -2336 0
-2332 -2337 0
-2332 -2338 0
-2332 -2339 0
-2332 -2340 0
-2333 -2334 0
-2333 -2335 0
-2333 -2336 0
-2333 -2337 0
-2333 -2338 0
-2333 -2339 0
-2333 -2340 0
-2334 -2335 0
-2334 -2336 0
-2334 -2337 0
-2334 -2338 0
-2334 -2339 0
-2334 -2340 0
-2335 -2336 0
-2335 -2337 0
-2335 -2338 0
-2335 -2339 0
-2335 -2340 0
-2336 -2337 0
-2336 -2338 0
-2336 -2339 0
-2336 -2340 0
-2337 -2338 0
-2337 -2339 0
-2337 -2340 0
-2338 -2339 0
-2338 -2340 0
-2339 -2340 0
2341 2342 2343 2344 2345 2346 2347 2348 2349 2350 0
-2341 -2342 0
-2341 -2343 0
-2341 -2344 0
-2341 -2345 0
-2341 -2346 0
-2341 -2347 0
-2341 -2348 0
-2341 -2349 0
-2341 -2350 0
-2342 -2343 0
-2342 -2344 0
-2342 -2345 0
-2342 -2346 0
-2342 -2347 0
-2342 -2348 0
-2342 -2349 0
-2342 -2350 0
-2343 -2344 0
-2343 -2345 0
-2343 -2346 0
-2343 -2347 0
-2343 -2348 0
-2343 -2349 0
-2343 -2350 0
-2344 -2345 0
-2344 -2346 0
-2344 -2347 0
-2344 -2348 0
-2344 -2349 0
-2344 -2350 0
-2345 -2346 0
-2345 -2347 0
-2345 -2348 0
-2345 -2349 0
-2345 -2350 0
-2346 -2347 0
-2346 -2348 0
-2346 -2349 0
-2346 -2350 0
-2347 -2348 0
-2347 -2349 0
-2347 -2350 0
-2348 -2349 0
-2348 -2350 0
-2349 -2350 0
2351 2352 2353 2354 2355 2356 2357 2358 2359 2360 0
-2351 -2352 0
-2351 -2353 0
-2351 -2354 0
-2351 -2355 0
-2351 -2356 0
-2351 -2357 0
-2351 -2358 0
-2351 -2359 0
-2351 -2360 0
-2352 -2353 0
-2352 -2354 0
-2352 -2355 0
-2352 -2356 0
-2352 -2357 0
-2352 -2358 0
-2352 -2359 0
-2352 -2360 0
-2353 -2354 0
-2353 -2355 0
-2353 -2356 0
-2353 -2357 0
-2353 -2358 0
-2353 -2359 0
-2353 -2360 0
-2354 -2355 0
-2354 -2356 0
-2354 -2357 0
-2354 -2358 0
-2354 -2359 0
-2354 -2360 0
-2355 -2356 0
-2355 -2357 0
-2355 -2358 0
-2355 -2359 0
-2355 -2360 0
-2356 -2357 0
-2356 -2358 0
-2356 -2359 0
-2356 -2360 0
-2357 -2358 0
-2357 -2359 0
-2357 -2360 0
-2358 -2359 0
-2358 -2360 0
-2359 -2360 0
2361 2362 2363 2364 2365 2366 2367 2368 2369 2370 0
-2361 -2362 0
-2361 -2363 0
-2361 -2364 0
-2361 -2365 0
-2361 -2366 0
-2361 -2367 0
-2361 -2368 0
-2361 -2369 0
-2361 -2370 0
-2362 -2363 0
-2362 -2364 0
-2362 -2365 0
-2362 -2366 0
-2362 -2367 0
-2362 -2368 0
-2362 -2369 0
-2362 -2370 0
-2363 -2364 0
-2363 -2365 0
-2363 -2366 0
-2363 -2367 0
-2363 -2368 0
-2363 -2369 0
-2363 -2370 0
-2364 -2365 0
-2364 -2366 0
-2364 -2367 0
-2364 -2368 0
-2364 -2369 0
-2364 -2370 0
-2365 -2366 0
-2365 -2367 0
-2365 -2368 0
-2365 -2369 0
-2365 -2370 0
-2366 -2367 0
-2366 -2368 0
-2366 -2369 0
-2366 -2370 0
-2367 -2368 0
-2367 -2369 0
-2367 -2370 0
-2368 -2369 0
-2368 -2370 0
-2369 -2370 0
2371 2372 2373 2374 2375 2376 2377 2378 2379 2380 0
-2371 -2372 0
-2371 -2373 0
-2371 -2374 0
-2371 -2375 0
-2371 -2376 0
-2371 -2377 0
-2371 -2378 0
-2371 -2379 0
-2371 -2380 0
-2372 -2373 0
-2372 -2374 0
-2372 -2375 0
-2372 -2376 0
-2372 -2377 0
-2372 -2378 0
-2372 -2379 0
-2372 -2380 0
-2373 -2374 0
-2373 -2375 0
-2373 -2376 0
-2373 -2377 0
-2373 -2378 0
-2373 -2379 0
-2373 -2380 0
-2374 -2375 0
-2374 -2376 0
-2374 -2377 0
-2374 -2378 0
-2374 -2379 0
-2374 -2380 0
-2375 -2376 0
-2375 -2377 0
-2375 -2378 0
-2375 -2379 0
-2375 -2380 0
-2376 -2377 0
-2376 -2378 0
-2376 -2379 0
-2376 -2380 0
-2377 -2378 0
-2377 -2379 0
-2377 -2380 0
-2378 -2379 0
-2378 -2380 0
-2379 -2380 0
2381 2382 2383 2384 2385 2386 2387 2388 2389 2390 0
-2381 -2382 0
-2381 -2383 0
-2381 -2384 0
-2381 -2385 0
-2381 -2386 0
-2381 -2387 0
-2381 -2388 0
-2381 -2389 0
-2381 -2390 0
-2382 -2383 0
-2382 -2384 0
-2382 -2385 0
-2382 -2386 0
-2382 -2387 0
-2382 -2388 0
-2382 -2389 0
-2382 -2390 0
-2383 -2384 0
-2383 -2385 0
-2383 -2386 0
-2383 -2387 0
-2383 -2388 0
-2383 -2389 0
-2383 -2390 0
-2384 -2385 0
-2384 -2386 0
-2384 -2387 0
-2384 -2388 0
-2384 -2389 0
-2384 -2390 0
-2385 -2386 0
-2385 -2387 0
-2385 -2388 0
-2385 -2389 0
-2385 -2390 0
-2386 -2387 0
-2386 -2388 0
-2386 -2389 0
-2386 -2390 0
-2387 -2388 0
-2387 -2389 0
-2387 -2390 0
-2388 -2389 0
-2388 -2390 0
-2389 -2390 0
2391 2392 2393 2394 2395 2396 2397 2398 2399 2400 0
-2391 -2392 0
-2391 -2393 0
-2391 -2394 0
-2391 -2395 0
-2391 -2396 0
-2391 -2397 0
-2391 -2398 0
-2391 -2399 0
-2391 -2400 0
-2392 -2393 0
-2392 -2394 0
-2392 -2395 0
-2392 -2396 0
-2392 -2397 0
-2392 -2398 0
-2392 -2399 0
-2392 -2400 0
-2393 -2394 0
-2393 -2395 0
-2393 -2396 0
-2393 -2397 0
-2393 -2398 0
-2393 -2399 0
-2393 -2400 0
-2394 -2395 0
-2394 -2396 0
-2394 -2397 0
-2394 -2398 0
-2394 -2399 0
-2394 -2400 0
-2395 -2396 0
-2395 -2397 0
-2395 -2398 0
-2395 -2399 0
-2395 -2400 0
-2396 -2397 0
-2396 -2398 0
-2396 -2399 0
-2396 -2400 0
-2397 -2398 0
-2397 -2399 0
-2397 -2400 0
-2398 -2399 0
-2398 -2400 0
-2399 -2400 0
2401 2402 2403 2404 2405 2406 2407 2408 2409 2410 0
-2401 -2402 0
-2401 -2403 0
-2401 -2404 0
-2401 -2405 0
-2401 -2406 0
-2401 -2407 0
-2401 -2408 0
-2401 -2409 0
-2401 -2410 0
-2402 -2403 0
-2402 -2404 0
-2402 -2405 0
-2402 -2406 0
-2402 -2407 0
-2402 -2408 0
-2402 -2409 0
-2402 -2410 0
-2403 -2404 0
-2403 -2405 0
-2403 -2406 0
-2403 -2407 0
-2403 -2408 0
-2403 -2409 0
-2403 -2410 0
-2404 -2405 0
-2404 -2406 0
-2404 -2407 0
-2404 -2408 0
-2404 -2409 0
-2404 -2410 0
-2405 -2406 0
-2405 -2407 0
-2405 -2408 0
-2405 -2409 0
-2405 -2410 0
-2406 -2407 0
-2406 -2408 0
-2406 -2409 0
-2406 -2410 0
-2407 -2408 0
-2407 -2409 0
-2407 -2410 0
-2408 -2409 0
-2408 -2410 0
-2409 -2410 0
2411 2412 2413 2414 2415 2416 2417 2418 2419 2420 0
-2411 -2412 0
-2411 -2413 0
-2411 -2414 0
-2411 -2415 0
-2411 -2416 0
-2411 -2417 0
-2411 -2418 0
-2411 -2419 0
-2411 -2420 0
-2412 -2413 0
-2412 -2414 0
-2412 -2415 0
-2412 -2416 0
-2412 -2417 0
-2412 -2418 0
-2412 -2419 0
-2412 -2420 0
-2413 -2414 0
-2413 -2415 0
-2413 -2416 0
-2413 -2417 0
-2413 -2418 0
-2413 -2419 0
-2413 -2420 0
-2414 -2415 0
-2414 -2416 0
-2414 -2417 0
-2414 -2418 0
-2414 -2419 0
-2414 -2420 0
-2415 -2416 0
-2415 -2417 0
-2415 -2418 0
-2415 -2419 0
-2415 -2420 0
-2416 -2417 0
-2416 -2418 0
-2416 -2419 0
-2416 -2420 0
-2417 -2418 0
-2417 -2419 0
-2417 -2420 0
-2418 -2419 0
-2418 -2420 0
-2419 -2420 0
2421 2422 2423 2424 2425 2426 2427 2428 2429 2430 0
-2421 -2422 0
-2421 -2423 0
-2421 -2424 0
-2421 -2425 0
-2421 -2426 0
-2421 -2427 0
-2421 -2428 0
-2421 -2429 0
-2421 -2430 0
-2422 -2423 0
-2422 -2424 0
-2422 -2425 0
-2422 -2426 0
-2422 -2427 0
-2422 -2428 0
-2422 -2429 0
-2422 -2430 0
-2423 -2424 0
-2423 -2425 0
-2423 -2426 0
-2423 -2427 0
-2423 -2428 0
-2423 -2429 0
-2423 -2430 0
-2424 -2425 0
-2424 -2426 0
-2424 -2427 0
-2424 -2428 0
-2424 -2429 0
-2424 -2430 0
-2425 -2426 0
-2425 -2427 0
-2425 -2428 0
-2425 -2429 0
-2425 -2430 0
-2426 -2427 0
-2426 -2428 0
-2426 -2429 0
-2426 -2430 0
-2427 -2428 0
-2427 -2429 0
-2427 -2430 0
-2428 -2429 0
-2428 -2430 0
-2429 -2430 0
2431 2432 2433 2434 2435 2436 2437 2438 2439 2440 0
-2431 -2432 0
-2431 -2433 0
-2431 -2434 0
-2431 -2435 0
-2431 -2436 0
-2431 -2437 0
-2431 -2438 0
-2431 -2439 0
-2431 -2440 0
-2432 -2433 0
-2432 -2434 0
-2432 -2435 0
-2432 -2436 0
-2432 -2437 0
-2432 -2438 0
-2432 -2439 0
-2432 -2440 0
-2433 -2434 0
-2433 -2435 0
-2433 -2436 0
-2433 -2437 0
-2433 -2438 0
-2433 -2439 0
-2433 -2440 0
-2434 -2435 0
-2434 -2436 0
-2434 -2437 0
-2434 -2438 0
-2434 -2439 0
-2434 -2440 0
-2435 -2436 0
-2435 -2437 0
-2435 -2438 0
-2435 -2439 0
-2435 -2440 0
-2436 -2437 0
-2436 -2438 0
-2436 -2439 0
-2436 -2440 0
-2437 -2438 0
-2437 -2439 0
-2437 -2440 0
-2438 -2439 0
-2438 -2440 0
-2439 -2440 0
2441 2442 2443 2444 2445 2446 2447 2448 2449 2450 0
-2441 -2442 0
-2441 -2443 0
-2441 -2444 0
-2441 -2445 0
-2441 -2446 0
-2441 -2447 0
-2441 -2448 0
-2441 -2449 0
-2441 -2450 0
-2442 -2443 0
-2442 -2444 0
-2442 -2445 0
-2442 -2446 0
-2442 -2447 0
-2442 -2448 0
-2442 -2449 0
-2442 -2450 0
-2443 -2444 0
-2443 -2445 0
-2443 -2446 0
-2443 -2447 0
-2443 -2448 0
-2443 -2449 0
-2443 -2450 0
-2444 -2445 0
-2444 -2446 0
-2444 -2447 0
-2444 -2448 0
-2444 -2449 0
-2444 -2450 0
-2445 -2446 0
-2445 -2447 0
-2445 -2448 0
-2445 -2449 0
-2445 -2450 0
-2446 -2447 0
-2446 -2448 0
-2446 -2449 0
-2446 -2450 0
-2447 -2448 0
-2447 -2449 0
-2447 -2450 0
-2448 -2449 0
-2448 -2450 0
-2449 -2450 0
2451 2452 2453 2454 2455 2456 2457 2458 2459 2460 0
-2451 -2452 0
-2451 -2453 0
-2451 -2454 0
-2451 -2455 0
-2451 -2456 0
-2451 -2457 0
-2451 -2458 0
-2451 -2459 0
-2451 -2460 0
-2452 -2453 0
-2452 -2454 0
-2452 -2455 0
-2452 -2456 0
-2452 -2457 0
-2452 -2458 0
-2452 -2459 0
-2452 -2460 0
-2453 -2454 0
-2453 -2455 0
-2453 -2456 0
-2453 -2457 0
-2453 -2458 0
-2453 -2459 0
-2453 -2460 0
-2454 -2455 0
-2454 -2456 0
-2454 -2457 0
-2454 -2458 0
-2454 -2459 0
-2454 -2460 0
-2455 -2456 0
-2455 -2457 0
-2455 -2458 0
-2455 -2459 0
-2455 -2460 0
-2456 -2457 0
-2456 -2458 0
-2456 -2459 0
-2456 -2460 0
-2457 -2458 0
-2457 -2459 0
-2457 -2460 0
-2458 -2459 0
-2458 -2460 0
-2459 -2460 0
2461 2462 2463 2464 2465 2466 2467 2468 2469 2470 0
-2461 -2462 0
-2461 -2463 0
-2461 -2464 0
-2461 -2465 0
-2461 -2466 0
-2461 -2467 0
-2461 -2468 0
-2461 -2469 0
-2461 -2470 0
-2462 -2463 0
-2462 -2464 0
-2462 -2465 0
-2462 -2466 0
-2462 -2467 0
-2462 -2468 0
-2462 -2469 0
-2462 -2470 0
-2463 -2464 0
-2463 -2465 0
-2463 -2466 0
-2463 -2467 0
-2463 -2468 0
-2463 -2469 0
-2463 -2470 0
-2464 -2465 0
-2464 -2466 0
-2464 -2467 0
-2464 -2468 0
-2464 -2469 0
-2464 -2470 0
-2465 -2466 0
-2465 -2467 0
-2465 -2468 0
-2465 -2469 0
-2465 -2470 0
-2466 -2467 0
-2466 -2468 0
-2466 -2469 0
-2466 -2470 0
-2467 -2468 0
-2467 -2469 0
-2467 -2470 0
-2468 -2469 0
-2468 -2470 0
-2469 -2470 0
2471 2472 2473 2474 2475 2476 2477 2478 2479 2480 0
-2471 -2472 0
-2471 -2473 0
-2471 -2474 0
-2471 -2475 0
-2471 -2476 0
-2471 -2477 0
-2471 -2478 0
-2471 -2479 0
-2471 -2480 0
-2472 -2473 0
-2472 -2474 0
-2472 -2475 0
-2472 -2476 0
-2472 -2477 0
-2472 -2478 0
-2472 -2479 0
-2472 -2480 0
-2473 -2474 0
-2473 -2475 0
-2473 -2476 0
-2473 -2477 0
-2473 -2478 0
-2473 -2479 0
-2473 -2480 0
-2474 -2475 0
-2474 -2476 0
-2474 -2477 0
-2474 -2478 0
-2474 -2479 0
-2474 -2480 0
-2475 -2476 0
-2475 -2477 0
-2475 -2478 0
-2475 -2479 0
-2475 -2480 0
-2476 -2477 0
-2476 -2478 0
-2476 -2479 0
-2476 -2480 0
-2477 -2478 0
-2477 -2479 0
-2477 -2480 0
-2478 -2479 0
-2478 -2480 0
-2479 -2480 0
2481 2482 2483 2484 2485 2486 2487 2488 2489 2490 0
-2481 -2482 0
-2481 -2483 0
-2481 -2484 0
-2481 -2485 0
-2481 -2486 0
-2481 -2487 0
-2481 -2488 0
-2481 -2489 0
-2481 -2490 0
-2482 -2483 0
-2482 -2484 0
-2482 -2485 0
-2482 -2486 0
-2482 -2487 0
-2482 -2488 0
-2482 -2489 0
-2482 -2490 0
-2483 -2484 0
-2483 -2485 0
-2483 -2486 0
-2483 -2487 0
-2483 -2488 0
-2483 -2489 0
-2483 -2490 0
-2484 -2485 0
-2484 -2486 0
-2484 -2487 0
-2484 -2488 0
-2484 -2489 0
-2484 -2490 0
-2485 -2486 0
-2485 -2487 0
-2485 -2488 0
-2485 -2489 0
-2485 -2490 0
-2486 -2487 0
-2486 -2488 0
-2486 -2489 0
-2486 -2490 0
-2487 -2488 0
-2487 -2489 0
-2487 -2490 0
-2488 -2489 0
-2488 -2490 0
-2489 -2490 0
2491 2492 2493 2494 2495 2496 2497 2498 2499 2500 0
-2491 -2492 0
-2491 -2493 0
-2491 -2494 0
-2491 -2495 0
-2491 -2496 0
-2491 -2497 0
-2491 -2498 0
-2491 -2499 0
-2491 -2500 0
-2492 -2493 0
-2492 -2494 0
-2492 -2495 0
-2492 -2496 0
-2492 -2497 0
-2492 -2498 0
-2492 -2499 0
-2492 -2500 0
-2493 -2494 0
-2493 -2495 0
-2493 -2496 0
-2493 -2497 0
-2493 -2498 0
-2493 -2499 0
-2493 -2500 0
-2494 -2495 0
-2494 -2496 0
-2494 -2497 0
-2494 -2498 0
-2494 -2499 0
-2494 -2500 0
-2495 -2496 0
-2495 -2497 0
-2495 -2498 0
-2495 -2499 0
-2495 -2500 0
-2496 -2497 0
-2496 -2498 0
-2496 -2499 0
-2496 -2500 0
-2497 -2498 0
-2497 -2499 0
-2497 -2500 0
-2498 -2499 0
-2498 -2500 0
-2499 -2500 0
2501 2502 2503 2504 2505 2506 2507 2508 2509 2510 0
-2501 -2502 0
-2501 -2503 0
-2501 -2504 0
-2501 -2505 0
-2501 -2506 0
-2501 -2507 0
-2501 -2508 0
-2501 -2509 0
-2501 -2510 0
-2502 -2503 0
-2502 -2504 0
-2502 -2505 0
-2502 -2506 0
-2502 -2507 0
-2502 -2508 0
-2502 -2509 0
-2502 -2510 0
-2503 -2504 0
-2503 -2505 0
-2503 -2506 0
-2503 -2507 0
-2503 -2508 0
-2503 -2509 0
-2503 -2510 0
-2504 -2505 0
-2504 -2506 0
-2504 -2507 0
-2504 -2508 0
-2504 -2509 0
-2504 -2510 0
-2505 -2506 0
-2505 -2507 0
-2505 -2508 0
-2505 -2509 0
-2505 -2510 0
-2506 -2507 0
-2506 -2508 0
-2506 -2509 0
-2506 -2510 0
-2507 -2508 0
-2507 -2509 0
-2507 -2510 0
-2508 -2509 0
-2508 -2510 0
-2509 -2510 0
2511 2512 2513 2514 2515 2516 2517 2518 2519 2520 0
-2511 -2512 0
-2511 -2513 0
-2511 -2514 0
-2511 -2515 0
-2511 -2516 0
-2511 -2517 0
-2511 -2518 0
-2511 -2519 0
-2511 -2520 0
-2512 -2513 0
-2512 -2514 0
-2512 -2515 0
-2512 -2516 0
-2512 -2517 0
-2512 -2518 0
-2512 -2519 0
-2512 -2520 0
-2513 -2514 0
-2513 -2515 0
-2513 -2516 0
-2513 -2517 0
-2513 -2518 0
-2513 -2519 0
-2513 -2520 0
-2514 -2515 0
-2514 -2516 0
-2514 -2517 0
-2514 -2518 0
-2514 -2519 0
-2514 -2520 0
-2515 -2516 0
-2515 -2517 0
-2515 -2518 0
-2515 -2519 0
-2515 -2520 0
-2516 -2517 0
-2516 -2518 0
-2516 -2519 0
-2516 -2520 0
-2517 -2518 0
-2517 -2519 0
-2517 -2520 0
-2518 -2519 0
-2518 -2520 0
-2519 -2520 0
2521 2522 2523 2524 2525 2526 2527 2528 2529 2530 0
-2521 -2522 0
-2521 -2523 0
-2521 -2524 0
-2521 -2525 0
-2521 -2526 0
-2521 -2527 0
-2521 -2528 0
-2521 -2529 0
-2521 -2530 0
-2522 -2523 0
-2522 -2524 0
-2522 -2525 0
-2522 -2526 0
-2522 -2527 0
-2522 -2528 0
-2522 -2529 0
-2522 -2530 0
-2523 -2524 0
-2523 -2525 0
-2523 -2526 0
-2523 -2527 0
-2523 -2528 0
-2523 -2529 0
-2523 -2530 0
-2524 -2525 0
-2524 -2526 0
-2524 -2527 0
-2524 -2528 0
-2524 -2529 0
-2524 -2530 0
-2525 -2526 0
-2525 -2527 0
-2525 -2528 0
-2525 -2529 0
-2525 -2530 0
-2526 -2527 0
-2526 -2528 0
-2526 -2529 0
-2526 -2530 0
-2527 -2528 0
-2527 -2529 0
-2527 -2530 0
-2528 -2529 0
-2528 -2530 0
-2529 -2530 0
2531 2532 2533 2534 2535 2536 2537 2538 2539 2540 0
-2531 -2532 0
-2531 -2533 0
-2531 -2534 0
-2531 -2535 0
-2531 -2536 0
-2531 -2537 0
-2531 -2538 0
-2531 -2539 0
-2531 -2540 0
-2532 -2533 0
-2532 -2534 0
-2532 -2535 0
-2532 -2536 0
-2532 -2537 0
-2532 -2538 0
-2532 -2539 0
-2532 -2540 0
-2533 -2534 0
-2533 -2535 0
-2533 -2536 0
-2533 -2537 0
-2533 -2538 0
-2533 -2539 0
-2533 -2540 0
-2534 -2535 0
-2534 -2536 0
-2534 -2537 0
-2534 -2538 0
-2534 -2539 0
-2534 -2540 0
-2535 -2536 0
-2535 -2537 0
-2535 -2538 0
-2535 -2539 0
-2535 -2540 0
-2536 -2537 0
-2536 -2538 0
-2536 -2539 0
-2536 -2540 0
-2537 -2538 0
-2537 -2539 0
-2537 -2540 0
-2538 -2539 0
-2538 -2540 0
-2539 -2540 0
2541 2542 2543 2544 2545 2546 2547 2548 2549 2550 0
-2541 -2542 0
-2541 -2543 0
-2541 -2544 0
-2541 -2545 0
-2541 -2546 0
-2541 -2547 0
-2541 -2548 0
-2541 -2549 0
-2541 -2550 0
-2542 -2543 0
-2542 -2544 0
-2542 -2545 0
-2542 -2546 0
-2542 -2547 0
-2542 -2548 0
-2542 -2549 0
-2542 -2550 0
-2543 -2544 0
-2543 -2545 0
-2543 -2546 0
-2543 -2547 0
-2543 -2548 0
-2543 -2549 0
-2543 -2550 0
-2544 -2545 0
-2544 -2546 0
-2544 -2547 0
-2544 -2548 0
-2544 -2549 0
-2544 -2550 0
-2545 -2546 0
-2545 -2547 0
-2545 -2548 0
-2545 -2549 0
-2545 -2550 0
-2546 -2547 0
-2546 -2548 0
-2546 -2549 0
-2546 -2550 0
-2547 -2548 0
-2547 -2549 0
-2547 -2550 0
-2548 -2549 0
-2548 -2550 0
-2549 -2550 0
2551 2552 2553 2554 2555 2556 2557 2558 2559 2560 0
-2551 -2552 0
-2551 -2553 0
-2551 -2554 0
-2551 -2555 0
-2551 -2556 0
-2551 -2557 0
-2551 -2558 0
-2551 -2559 0
-2551 -2560 0
-2552 -2553 0
-2552 -2554 0
-2552 -2555 0
-2552 -2556 0
-2552 -2557 0
-2552 -2558 0
-2552 -2559 0
-2552 -2560 0
-2553 -2554 0
-2553 -2555 0
-2553 -2556 0
-2553 -2557 0
-2553 -2558 0
-2553 -2559 0
-2553 -2560 0
-2554 -2555 0
-2554 -2556 0
-2554 -2557 0
-2554 -2558 0
-2554 -2559 0
-2554 -2560 0
-2555 -2556 0
-2555 -2557 0
-2555 -2558 0
-2555 -2559 0
-2555 -2560 0
-2556 -2557 0
-2556 -2558 0
-2556 -2559 0
-2556 -2560 0
-2557 -2558 0
-2557 -2559 0
-2557 -2560 0
-2558 -2559 0
-2558 -2560 0
-2559 -2560 0
-1 -11 0
-1 -13 0
-1 -14 0
-1 -16 0
-1 -17 0
-1 -18 0
-1 -19 0
-1 -20 0
-1 -161 0
-1 -163 0
-1 -164 0
-1 -166 0
-1 -167 0
-1 -168 0
-1 -169 0
-1 -170 0
-2 -11 0
-2 -12 0
-2 -14 0
-2 -15 0
-2 -16 0
-2 -17 0
-2 -18 0
-2 -19 0
-2 -20 0
-2 -161 0
-2 -162 0
-2 -163 0
-2 -164 0
-2 -165 0
-2 -167 0
-2 -168 0
-2 -169 0
-2 -170 0
-3 -11 0
-3 -12 0
-3 -13 0
-3 -15 0
-3 -16 0
-3 -17 0
-3 -18 0
-3 -19 0
-3 -20 0
-3 -161 0
-3 -162 0
-3 -163 0
-3 -164 0
-3 -165 0
-3 -166 0
-3 -168 0
-3 -169 0
-3 -170 0
-4 -12 0
-4 -13 0
-4 -14 0
-4 -15 0
-4 -16 0
-4 -17 0
-4 -18 0
-4 -19 0
-4 -20 0
-4 -161 0
-4 -162 0
-4 -163 0
-4 -164 0
-4 -165 0
-4 -166 0
-4 -167 0
-4 -169 0
-4 -170 0
-5 -11 0
-5 -12 0
-5 -13 0
-5 -14 0
-5 -15 0
-5 -17 0
-5 -18 0
-5 -20 0
-5 -161 0
-5 -162 0
-5 -164 0
-5 -165 0
-5 -166 0
-5 -167 0
-5 -168 0
-5 -170 0
-6 -11 0
-6 -12 0
-6 -13 0
-6 -14 0
-6 -15 0
-6 -16 0
-6 -18 0
-6 -19 0
-6 -20 0
-6 -161 0
-6 -162 0
-6 -163 0
-6 -165 0
-6 -166 0
-6 -167 0
-6 -168 0
-6 -169 0
-7 -11 0
-7 -12 0
-7 -13 0
-7 -14 0
-7 -15 0
-7 -16 0
-7 -17 0
-7 -19 0
-7 -20 0
-7 -162 0
-7 -163 0
-7 -164 0
-7 -165 0
-7 -166 0
-7 -167 0
-7 -168 0
-7 -169 0
-7 -170 0
-8 -11 0
-8 -13 0
-8 -14 0
-8 -16 0
-8 -17 0
-8 -18 0
-8 -19 0
-8 -20 0
-8 -161 0
-8 -163 0
-8 -164 0
-8 -166 0
-8 -167 0
-8 -168 0
-8 -169 0
-8 -170 0
-9 -11 0
-9 -12 0
-9 -13 0
-9 -14 0
-9 -15 0
-9 -16 0
-9 -17 0
-9 -18 0
-9 -19 0
-9 -161 0
-9 -162 0
-9 -163 0
-9 -165 0
-9 -166 0
-9 -167 0
-9 -168 0
-9 -169 0
-10 -12 0
-10 -13 0
-10 -14 0
-10 -15 0
-10 -16 0
-10 -17 0
-10 -18 0
-10 -19 0
-10 -20 0
-10 -162 0
-10 -163 0
-10 -164 0
-10 -165 0
-10 -166 0
-10 -167 0
-10 -168 0
-10 -169 0
-10 -170 0
-11 -21 0
-11 -23 0
-11 -24 0
-11 -26 0
-11 -27 0
-11 -28 0
-11 -29 0
-11 -30 0
-11 -171 0
-11 -173 0
-11 -174 0
-11 -176 0
-11 -177 0
-11 -178 0
-11 -179 0
-11 -180 0
-12 -21 0
-12 -22 0
-12 -24 0
-12 -25 0
-12 -26 0
-12 -27 0
-12 -28 0
-12 -29 0
-12 -30 0
-12 -171 0
-12 -172 0
-12 -173 0
-12 -174 0
-12 -175 0
-12 -177 0
-12 -178 0
-12 -179 0
-12 -180 0
-13 -21 0
-13 -22 0
-13 -23 0
-13 -25 0
-13 -26 0
-13 -27 0
-13 -28 0
-13 -29 0
-13 -30 0
-13 -171 0
-13 -172 0
-13 -173 0
-13 -174 0
-13 -175 0
-13 -176 0
-13 -178 0
-13 -179 0
-13 -180 0
-14 -22 0
-14 -23 0
-14 -24 0
-14 -25 0
-14 -26 0
-14 -27 0
-14 -28 0
-14 -29 0
-14 -30 0
-14 -171 0
-14 -172 0
-14 -173 0
-14 -174 0
-14 -175 0
-14 -176 0
-14 -177 0
-14 -179 0
-14 -180 0
-15 -21 0
-15 -22 0
-15 -23 0
-15 -24 0
-15 -25 0
-15 -27 0
-15 -28 0
-15 -30 0
-15 -171 0
-15 -172 0
-15 -174 0
-15 -175 0
-15 -176 0
-15 -177 0
-15 -178 0
-15 -180 0
-16 -21 0
-16 -22 0
-16 -23 0
-16 -24 0
-16 -25 0
-16 -26 0
-16 -28 0
-16 -29 0
-16 -30 0
-16 -171 0
-16 -172 0
-16 -173 0
-16 -175 0
-16 -176 0
-16 -177 0
-16 -178 0
-16 -179 0
-17 -21 0
-17 -22 0
-17 -23 0
-17 -24 0
-17 -25 0
-17 -26 0
-17 -27 0
-17 -29 0
-17 -30 0
-17 -172 0
-17 -173 0
-17 -174 0
-17 -175 0
-17 -176 0
-17 -177 0
-17 -178 0
-17 -179 0
-17 -180 0
-18 -21 0
-18 -23 0
-18 -24 0
-18 -26 0
-18 -27 0
-18 -28 0
-18 -29 0
-18 -30 0
-18 -171 0
-18 -173 0
-18 -174 0
-18 -176 0
-18 -177 0
-18 -178 0
-18 -179 0
-18 -180 0
-19 -21 0
-19 -22 0
-19 -23 0
-19 -24 0
-19 -25 0
-19 -26 0
-19 -27 0
-19 -28 0
-19 -29 0
-19 -171 0
-19 -172 0
-19 -173 0
-19 -175 0
-19 -176 0
-19 -177 0
-19 -178 0
-19 -179 0
-20 -22 0
-20 -23 0
-20 -24 0
-20 -25 0
-20 -26 0
-20 -27 0
-20 -28 0
-20 -29 0
-20 -30 0
-20 -172 0
-20 -173 0
-20 -174 0
-20 -175 0
-20 -176 0
-20 -177 0
-20 -178 0
-20 -179 0
-20 -180 0
-21 -31 0
-21 -33 0
-21 -34 0
-21 -36 0
-21 -37 0
-21 -38 0
-21 -39 0
-21 -40 0
-21 -181 0
-21 -183 0
-21 -184 0
-21 -186 0
-21 -187 0
-21 -188 0
-21 -189 0
-21 -190 0
-22 -31 0
-22 -32 0
-22 -34 0
-22 -35 0
-22 -36 0
-22 -37 0
-22 -38 0
-22 -39 0
-22 -40 0
-22 -181 0
-22 -182 0
-22 -183 0
-22 -184 0
-22 -185 0
-22 -187 0
-22 -188 0
-22 -189 0
-22 -190 0
-23 -31 0
-23 -32 0
-23 -33 0
-23 -35 0
-23 -36 0
-23 -37 0
-23 -38 0
-23 -39 0
-23 -40 0
-23 -181 0
-23 -182 0
-23 -183 0
-23 -184 0
-23 -185 0
-23 -186 0
-23 -188 0
-23 -189 0
-23 -190 0
-24 -32 0
-24 -33 0
-24 -34 0
-24 -35 0
-24 -36 0
-24 -37 0
-24 -38 0
-24 -39 0
-24 -40 0
-24 -181 0
-24 -182 0
-24 -183 0
-24 -184 0
-24 -185 0
-24 -186 0
-24 -187 0
-24 -189 0
-24 -190 0
-25 -31 0
-25 -32 0
-25 -33 0
-25 -34 0
-25 -35 0
-25 -37 0
-25 -38 0
-25 -40 0
-25 -181 0
-25 -182 0
-25 -184 0
-25 -185 0
-25 -186 0
-25 -187 0
-25 -188 0
-25 -190 0
-26 -31 0
-26 -32 0
-26 -33 0
-26 -34 0
-26 -35 0
-26 -36 0
-26 -38 0
-26 -39 0
-26 -40 0
-26 -181 0
-26 -182 0
-26 -183 0
-26 -185 0
-26 -186 0
-26 -187 0
-26 -188 0
-26 -189 0
-27 -31 0
-27 -32 0
-27 -33 0
-27 -34 0
-27 -35 0
-27 -36 0
-27 -37 0
-27 -39 0
-27 -40 0
-27 -182 0
-27 -183 0
-27 -184 0
-27 -185 0
-27 -186 0
-27 -187 0
-27 -188 0
-27 -189 0
-27 -190 0
-28 -31 0
-28 -33 0
-28 -34 0
-28 -36 0
-28 -37 0
-28 -38 0
-28 -39 0
-28 -40 0
-28 -181 0
-28 -183 0
-28 -184 0
-28 -186 0
-28 -187 0
-28 -188 0
-28 -189 0
-28 -190 0
-29 -31 0
-29 -32 0
-29 -33 0
-29 -34 0
-29 -35 0
-29 -36 0
-29 -37 0
-29 -38 0
-29 -39 0
-29 -181 0
-29 -182 0
-29 -183 0
-29 -185 0
-29 -186 0
-29 -187 0
-29 -188 0
-29 -189 0
-30 -32 0
-30 -33 0
-30 -34 0
-30 -35 0
-30 -36 0
-30 -37 0
-30 -38 0
-30 -39 0
-30 -40 0
-30 -182 0
-30 -183 0
-30 -184 0
-30 -185 0
-30 -186 0
-30 -187 0
-30 -188 0
-30 -189 0
-30 -190 0
-31 -41 0
-31 -43 0
-31 -44 0
-31 -46 0
-31 -47 0
-31 -48 0
-31 -49 0
-31 -50 0
-31 -191 0
-31 -193 0
-31 -194 0
-31 -196 0
-31 -197 0
-31 -198 0
-31 -199 0
-31 -200 0
-32 -41 0
-32 -42 0
-32 -44 0
-32 -45 0
-32 -46 0
-32 -47 0
-32 -48 0
-32 -49 0
-32 -50 0
-32 -191 0
-32 -192 0
-32 -193 0
-32 -194 0
-32 -195 0
-32 -197 0
-32 -198 0
-32 -199 0
-32 -200 0
-33 -41 0
-33 -42 0
-33 -43 0
-33 -45 0
-33 -46 0
-33 -47 0
-33 -48 0
-33 -49 0
-33 -50 0
-33 -191 0
-33 -192 0
-33 -193 0
-33 -194 0
-33 -195 0
-33 -196 0
-33 -198 0
-33 -199 0
-33 -200 0
-34 -42 0
-34 -43 0
-34 -44 0
-34 -45 0
-34 -46 0
-34 -47 0
-34 -48 0
-34 -49 0
-34 -50 0
-34 -191 0
-34 -192 0
-34 -193 0
-34 -194 0
-34 -195 0
-34 -196 0
-34 -197 0
-34 -199 0
-34 -200 0
-35 -41 0
-35 -42 0
-35 -43 0
-35 -44 0
-35 -45 0
-35 -47 0
-35 -48 0
-35 -50 0
-35 -191 0
-35 -192 0
-35 -194 0
-35 -195 0
-35 -196 0
-35 -197 0
-35 -198 0
-35 -200 0
-36 -41 0
-36 -42 0
-36 -43 0
-36 -44 0
-36 -45 0
-36 -46 0
-36 -48 0
-36 -49 0
-36 -50 0
-36 -191 0
-36 -192 0
-36 -193 0
-36 -195 0
-36 -196 0
-36 -197 0
-36 -198 0
-36 -199 0
-37 -41 0
-37 -42 0
-37 -43 0
-37 -44 0
-37 -45 0
-37 -46 0
-37 -47 0
-37 -49 0
-37 -50 0
-37 -192 0
-37 -193 0
-37 -194 0
-37 -195 0
-37 -196 0
-37 -197 0
-37 -198 0
-37 -199 0
-37 -200 0
-38 -41 0
-38 -43 0
-38 -44 0
-38 -46 0
-38 -47 0
-38 -48 0
-38 -49 0
-38 -50 0
-38 -191 0
-38 -193 0
-38 -194 0
-38 -196 0
-38 -197 0
-38 -198 0
-38 -199 0
-38 -200 0
-39 -41 0
-39 -42 0
-39 -43 0
-39 -44 0
-39 -45 0
-39 -46 0
-39 -47 0
-39 -48 0
-39 -49 0
-39 -191 0
-39 -192 0
-39 -193 0
-39 -195 0
-39 -196 0
-39 -197 0
-39 -198 0
-39 -199 0
-40 -42 0
-40 -43 0
-40 -44 0
-40 -45 0
-40 -46 0
-40 -47 0
-40 -48 0
-40 -49 0
-40 -50 0
-40 -192 0
-40 -193 0
-40 -194 0
-40 -195 0
-40 -196 0
-40 -197 0
-40 -198 0
-40 -199 0
-40 -200 0
-41 -51 0
-41 -53 0
-41 -54 0
-41 -56 0
-41 -57 0
-41 -58 0
-41 -59 0
-41 -60 0
-41 -201 0
-41 -203 0
-41 -204 0
-41 -206 0
-41 -207 0
-41 -208 0
-41 -209 0
-41 -210 0
-42 -51 0
-42 -52 0
-42 -54 0
-42 -55 0
-42 -56 0
-42 -57 0
-42 -58 0
-42 -59 0
-42 -60 0
-42 -201 0
-42 -202 0
-42 -203 0
-42 -204 0
-42 -205 0
-42 -207 0
-42 -208 0
-42 -209 0
-42 -210 0
-43 -51 0
-43 -52 0
-43 -53 0
-43 -55 0
-43 -56 0
-43 -57 0
-43 -58 0
-43 -59 0
-43 -60 0
-43 -201 0
-43 -202 0
-43 -203 0
-43 -204 0
-43 -205 0
-43 -206 0
-43 -208 0
-43 -209 0
-43 -210 0
-44 -52 0
-44 -53 0
-44 -54 0
-44 -55 0
-44 -56 0
-44 -57 0
-44 -58 0
-44 -59 0
-44 -60 0
-44 -201 0
-44 -202 0
-44 -203 0
-44 -204 0
-44 -205 0
-44 -206 0
-44 -207 0
-44 -209 0
-44 -210 0
-45 -51 0
-45 -52 0
-45 -53 0
-45 -54 0
-45 -55 0
-45 -57 0
-45 -58 0
-45 -60 0
-45 -201 0
-45 -202 0
-45 -204 0
-45 -205 0
-45 -206 0
-45 -207 0
-45 -208 0
-45 -210 0
-46 -51 0
-46 -52 0
-46 -53 0
-46 -54 0
-46 -55 0
-46 -56 0
-46 -58 0
-46 -59 0
-46 -60 0
-46 -201 0
-46 -202 0
-46 -203 0
-46 -205 0
-46 -206 0
-46 -207 0
-46 -208 0
-46 -209 0
-47 -51 0
-47 -52 0
-47 -53 0
-47 -54 0
-47 -55 0
-47 -56 0
-47 -57 0
-47 -59 0
-47 -60 0
-47 -202 0
-47 -203 0
-47 -204 0
-47 -205 0
-47 -206 0
-47 -207 0
-47 -208 0
-47 -209 0
-47 -210 0
-48 -51 0
-48 -53 0
-48 -54 0
-48 -56 0
-48 -57 0
-48 -58 0
-48 -59 0
-48 -60 0
-48 -201 0
-48 -203 0
-48 -204 0
-48 -206 0
-48 -207 0
-48 -208 0
-48 -209 0
-48 -210 0
-49 -51 0
-49 -52 0
-49 -53 0
-49 -54 0
-49 -55 0
-49 -56 0
-49 -57 0
-49 -58 0
-49 -59 0
-49 -201 0
-49 -202 0
-49 -203 0
-49 -205 0
-49 -206 0
-49 -207 0
-49 -208 0
-49 -209 0
-50 -52 0
-50 -53 0
-50 -54 0
-50 -55 0
-50 -56 0
-50 -57 0
-50 -58 0
-50 -59 0
-50 -60 0
-50 -202 0
-50 -203 0
-50 -204 0
-50 -205 0
-50 -206 0
-50 -207 0
-50 -208 0
-50 -209 0
-50 -210 0
-51 -61 0
-51 -63 0
-51 -64 0
-51 -66 0
-51 -67 0
-51 -68 0
-51 -69 0
-51 -70 0
-51 -211 0
-51 -213 0
-51 -214 0
-51 -216 0
-51 -217 0
-51 -218 0
-51 -219 0
-51 -220 0
-52 -61 0
-52 -62 0
-52 -64 0
-52 -65 0
-52 -66 0
-52 -67 0
-52 -68 0
-52 -69 0
-52 -70 0
-52 -211 0
-52 -212 0
-52 -213 0
-52 -214 0
-52 -215 0
-52 -217 0
-52 -218 0
-52 -219 0
-52 -220 0
-53 -61 0
-53 -62 0
-53 -63 0
-53 -65 0
-53 -66 0
-53 -67 0
-53 -68 0
-53 -69 0
-53 -70 0
-53 -211 0
-53 -212 0
-53 -213 0
-53 -214 0
-53 -215 0
-53 -216 0
-53 -218 0
-53 -219 0
-53 -220 0
-54 -62 0
-54 -63 0
-54 -64 0
-54 -65 0
-54 -66 0
-54 -67 0
-54 -68 0
-54 -69 0
-54 -70 0
-54 -211 0
-54 -212 0
-54 -213 0
-54 -214 0
-54 -215 0
-54 -216 0
-54 -217 0
-54 -219 0
-54 -220 0
-55 -61 0
-55 -62 0
-55 -63 0
-55 -64 0
-55 -65 0
-55 -67 0
-55 -68 0
-55 -70 0
-55 -211 0
-55 -212 0
-55 -214 0
-55 -215 0
-55 -216 0
-55 -217 0
-55 -218 0
-55 -220 0
-56 -61 0
-56 -62 0
-56 -63 0
-56 -64 0
-56 -65 0
-56 -66 0
-56 -68 0
-56 -69 0
-56 -70 0
-56 -211 0
-56 -212 0
-56 -213 0
-56 -215 0
-56 -216 0
-56 -217 0
-56 -218 0
-56 -219 0
-57 -61 0
-57 -62 0
-57 -63 0
-57 -64 0
-57 -65 0
-57 -66 0
-57 -67 0
-57 -69 0
-57 -70 0
-57 -212 0
-57 -213 0
-57 -214 0
-57 -215 0
-57 -216 0
-57 -217 0
-57 -218 0
-57 -219 0
-57 -220 0
-58 -61 0
-58 -63 0
-58 -64 0
-58 -66 0
-58 -67 0
-58 -68 0
-58 -69 0
-58 -70 0
-58 -211 0
-58 -213 0
-58 -214 0
-58 -216 0
-58 -217 0
-58 -218 0
-58 -219 0
-58 -220 0
-59 -61 0
-59 -62 0
-59 -63 0
-59 -64 0
-59 -65 0
-59 -66 0
-59 -67 0
-59 -68 0
-59 -69 0
-59 -211 0
-59 -212 0
-59 -213 0
-59 -215 0
-59 -216 0
-59 -217 0
-59 -218 0
-59 -219 0
-60 -62 0
-60 -63 0
-60 -64 0
-60 -65 0
-60 -66 0
-60 -67 0
-60 -68 0
-60 -69 0
-60 -70 0
-60 -212 0
-60 -213 0
-60 -214 0
-60 -215 0
-60 -216 0
-60 -217 0
-60 -218 0
-60 -219 0
-60 -220 0
-61 -71 0
-61 -73 0
-61 -74 0
-61 -76 0
-61 -77 0
-61 -78 0
-61 -79 0
-61 -80 0
-61 -221 0
-61 -223 0
-61 -224 0
-61 -226 0
-61 -227 0
-61 -228 0
-61 -229 0
-61 -230 0
-62 -71 0
-62 -72 0
-62 -74 0
-62 -75 0
-62 -76 0
-62 -77 0
-62 -78 0
-62 -79 0
-62 -80 0
-62 -221 0
-62 -222 0
-62 -223 0
-62 -224 0
-62 -225 0
-62 -227 0
-62 -228 0
-62 -229 0
-62 -230 0
-63 -71 0
-63 -72 0
-63 -73 0
-63 -75 0
-63 -76 0
-63 -77 0
-63 -78 0
-63 -79 0
-63 -80 0
-63 -221 0
-63 -222 0
-63 -223 0
-63 -224 0
-63 -225 0
-63 -226 0
-63 -228 0
-63 -229 0
-63 -230 0
-64 -72 0
-64 -73 0
-64 -74 0
-64 -75 0
-64 -76 0
-64 -77 0
-64 -78 0
-64 -79 0
-64 -80 0
-64 -221 0
-64 -222 0
-64 -223 0
-64 -224 0
-64 -225 0
-64 -226 0
-64 -227 0
-64 -229 0
-64 -230 0
-65 -71 0
-65 -72 0
-65 -73 0
-65 -74 0
-65 -75 0
-65 -77 0
-65 -78 0
-65 -80 0
-65 -221 0
-65 -222 0
-65 -224 0
-65 -225 0
-65 -226 0
-65 -227 0
-65 -228 0
-65 -230 0
-66 -71 0
-66 -72 0
-66 -73 0
-66 -74 0
-66 -75 0
-66 -76 0
-66 -78 0
-66 -79 0
-66 -80 0
-66 -221 0
-66 -222 0
-66 -223 0
-66 -225 0
-66 -226 0
-66 -227 0
-66 -228 0
-66 -229 0
-67 -71 0
-67 -72 0
-67 -73 0
-67 -74 0
-67 -75 0
-67 -76 0
-67 -77 0
-67 -79 0
-67 -80 0
-67 -222 0
-67 -223 0
-67 -224 0
-67 -225 0
-67 -226 0
-67 -227 0
-67 -228 0
-67 -229 0
-67 -230 0
-68 -71 0
-68 -73 0
-68 -74 0
-68 -76 0
-68 -77 0
-68 -78 0
-68 -79 0
-68 -80 0
-68 -221 0
-68 -223 0
-68 -224 0
-68 -226 0
-68 -227 0
-68 -228 0
-68 -229 0
-68 -230 0
-69 -71 0
-69 -72 0
-69 -73 0
-69 -74 0
-69 -75 0
-69 -76 0
-69 -77 0
-69 -78 0
-69 -79 0
-69 -221 0
-69 -222 0
-69 -223 0
-69 -225 0
-69 -226 0
-69 -227 0
-69 -228 0
-69 -229 0
-70 -72 0
-70 -73 0
-70 -74 0
-70 -75 0
-70 -76 0
-70 -77 0
-70 -78 0
-70 -79 0
-70 -80 0
-70 -222 0
-70 -223 0
-70 -224 0
-70 -225 0
-70 -226 0
-70 -227 0
-70 -228 0
-70 -229 0
-70 -230 0
-71 -81 0
-71 -83 0
-71 -84 0
-71 -86 0
-71 -87 0
-71 -88 0
-71 -89 0
-71 -90 0
-71 -231 0
-71 -233 0
-71 -234 0
-71 -236 0
-71 -237 0
-71 -238 0
-71 -239 0
-71 -240 0
-72 -81 0
-72 -82 0
-72 -84 0
-72 -85 0
-72 -86 0
-72 -87 0
-72 -88 0
-72 -89 0
-72 -90 0
-72 -231 0
-72 -232 0
-72 -233 0
-72 -234 0
-72 -235 0
-72 -237 0
-72 -238 0
-72 -239 0
-72 -240 0
-73 -81 0
-73 -82 0
-73 -83 0
-73 -85 0
-73 -86 0
-73 -87 0
-73 -88 0
-73 -89 0
-73 -90 0
-73 -231 0
-73 -232 0
-73 -233 0
-73 -234 0
-73 -235 0
-73 -236 0
-73 -238 0
-73 -239 0
-73 -240 0
-74 -82 0
-74 -83 0
-74 -84 0
-74 -85 0
-74 -86 0
-74 -87 0
-74 -88 0
-74 -89 0
-74 -90 0
-74 -231 0
-74 -232 0
-74 -233 0
-74 -234 0
-74 -235 0
-74 -236 0
-74 -237 0
-74 -239 0
-74 -240 0
-75 -81 0
-75 -82 0
-75 -83 0
-75 -84 0
-75 -85 0
-75 -87 0
-75 -88 0
-75 -90 0
-75 -231 0
-75 -232 0
-75 -234 0
-75 -235 0
-75 -236 0
-75 -237 0
-75 -238 0
-75 -240 0
-76 -81 0
-76 -82 0
-76 -83 0
-76 -84 0
-76 -85 0
-76 -86 0
-76 -88 0
-76 -89 0
-76 -90 0
-76 -231 0
-76 -232 0
-76 -233 0
-76 -235 0
-76 -236 0
-76 -237 0
-76 -238 0
-76 -239 0
-77 -81 0
-77 -82 0
-77 -83 0
-77 -84 0
-77 -85 0
-77 -86 0
-77 -87 0
-77 -89 0
-77 -90 0
-77 -232 0
-77 -233 0
-77 -234 0
-77 -235 0
-77 -236 0
-77 -237 0
-77 -238 0
-77 -239 0
-77 -240 0
-78 -81 0
-78 -83 0
-78 -84 0
-78 -86 0
-78 -87 0
-78 -88 0
-78 -89 0
-78 -90 0
-78 -231 0
-78 -233 0
-78 -234 0
-78 -236 0
-78 -237 0
-78 -238 0
-78 -239 0
-78 -240 0
-79 -81 0
-79 -82 0
-79 -83 0
-79 -84 0
-79 -85 0
-79 -86 0
-79 -87 0
-79 -88 0
-79 -89 0
-79 -231 0
-79 -232 0
-79 -233 0
-79 -235 0
-79 -236 0
-79 -237 0
-79 -238 0
-79 -239 0
-80 -82 0
-80 -83 0
-80 -84 0
-80 -85 0
-80 -86 0
-80 -87 0
-80 -88 0
-80 -89 0
-80 -90 0
-80 -232 0
-80 -233 0
-80 -234 0
-80 -235 0
-80 -236 0
-80 -237 0
-80 -238 0
-80 -239 0
-80 -240 0
-81 -91 0
-81 -93 0
-81 -94 0
-81 -96 0
-81 -97 0
-81 -98 0
-81 -99 0
-81 -100 0
-81 -241 0
-81 -243 0
-81 -244 0
-81 -246 0
-81 -247 0
-81 -248 0
-81 -249 0
-81 -250 0
-82 -91 0
-82 -92 0
-82 -94 0
-82 -95 0
-82 -96 0
-82 -97 0
-82 -98 0
-82 -99 0
-82 -100 0
-82 -241 0
-82 -242 0
-82 -243 0
-82 -244 0
-82 -245 0
-82 -247 0
-82 -248 0
-82 -249 0
-82 -250 0
-83 -91 0
-83 -92 0
-83 -93 0
-83 -95 0
-83 -96 0
-83 -97 0
-83 -98 0
-83 -99 0
-83 -100 0
-83 -241 0
-83 -242 0
-83 -243 0
-83 -244 0
-83 -245 0
-83 -246 0
-83 -248 0
-83 -249 0
-83 -250 0
-84 -92 0
-84 -93 0
-84 -94 0
-84 -95 0
-84 -96 0
-84 -97 0
-84 -98 0
-84 -99 0
-84 -100 0
-84 -241 0
-84 -242 0
-84 -243 0
-84 -244 0
-84 -245 0
-84 -246 0
-84 -247 0
-84 -249 0
-84 -250 0
-85 -91 0
-85 -92 0
-85 -93 0
-85 -94 0
-85 -95 0
-85 -97 0
-85 -98 0
-85 -100 0
-85 -241 0
-85 -242 0
-85 -244 0
-85 -245 0
-85 -246 0
-85 -247 0
-85 -248 0
-85 -250 0
-86 -91 0
-86 -92 0
-86 -93 0
-86 -94 0
-86 -95 0
-86 -96 0
-86 -98 0
-86 -99 0
-86 -100 0
-86 -241 0
-86 -242 0
-86 -243 0
-86 -245 0
-86 -246 0
-86 -247 0
-86 -248 0
-86 -249 0
-87 -91 0
-87 -92 0
-87 -93 0
-87 -94 0
-87 -95 0
-87 -96 0
-87 -97 0
-87 -99 0
-87 -100 0
-87 -242 0
-87 -243 0
-87 -244 0
-87 -245 0
-87 -246 0
-87 -247 0
-87 -248 0
-87 -249 0
-87 -250 0
-88 -91 0
-88 -93 0
-88 -94 0
-88 -96 0
-88 -97 0
-88 -98 0
-88 -99 0
-88 -100 0
-88 -241 0
-88 -243 0
-88 -244 0
-88 -246 0
-88 -247 0
-88 -248 0
-88 -249 0
-88 -250 0
-89 -91 0
-89 -92 0
-89 -93 0
-89 -94 0
-89 -95 0
-89 -96 0
-89 -97 0
-89 -98 0
-89 -99 0
-89 -241 0
-89 -242 0
-89 -243 0
-89 -245 0
-89 -246 0
-89 -247 0
-89 -248 0
-89 -249 0
-90 -92 0
-90 -93 0
-90 -94 0
-90 -95 0
-90 -96 0
-90 -97 0
-90 -98 0
-90 -99 0
-90 -100 0
-90 -242 0
-90 -243 0
-90 -244 0
-90 -245 0
-90 -246 0
-90 -247 0
-90 -248 0
-90 -249 0
-90 -250 0
-91 -101 0
-91 -103 0
-91 -104 0
-91 -106 0
-91 -107 0
-91 -108 0
-91 -109 0
-91 -110 0
-91 -251 0
-91 -253 0
-91 -254 0
-91 -256 0
-91 -257 0
-91 -258 0
-91 -259 0
-91 -260 0
-92 -101 0
-92 -102 0
-92 -104 0
-92 -105 0
-92 -106 0
-92 -107 0
-92 -108 0
-92 -109 0
-92 -110 0
-92 -251 0
-92 -252 0
-92 -253 0
-92 -254 0
-92 -255 0
-92 -257 0
-92 -258 0
-92 -259 0
-92 -260 0
-93 -101 0
-93 -102 0
-93 -103 0
-93 -105 0
-93 -106 0
-93 -107 0
-93 -108 0
-93 -109 0
-93 -110 0
-93 -251 0
-93 -252 0
-93 -253 0
-93 -254 0
-93 -255 0
-93 -256 0
-93 -258 0
-93 -259 0
-93 -260 0
-94 -102 0
-94 -103 0
-94 -104 0
-94 -105 0
-94 -106 0
-94 -107 0
-94 -108 0
-94 -109 0
-94 -110 0
-94 -251 0
-94 -252 0
-94 -253 0
-94 -254 0
-94 -255 0
-94 -256 0
-94 -257 0
-94 -259 0
-94 -260 0
-95 -101 0
-95 -102 0
-95 -103 0
-95 -104 0
-95 -105 0
-95 -107 0
-95 -108 0
-95 -110 0
-95 -251 0
-95 -252 0
-95 -254 0
-95 -255 0
-95 -256 0
-95 -257 0
-95 -258 0
-95 -260 0
-96 -101 0
-96 -102 0
-96 -103 0
-96 -104 0
-96 -105 0
-96 -106 0
-96 -108 0
-96 -109 0
-96 -110 0
-96 -251 0
-96 -252 0
-96 -253 0
-96 -255 0
-96 -256 0
-96 -257 0
-96 -258 0
-96 -259 0
-97 -101 0
-97 -102 0
-97 -103 0
-97 -104 0
-97 -105 0
-97 -106 0
-97 -107 0
-97 -109 0
-97 -110 0
-97 -252 0
-97 -253 0
-97 -254 0
-97 -255 0
-97 -256 0
-97 -257 0
-97 -258 0
-97 -259 0
-97 -260 0
-98 -101 0
-98 -103 0
-98 -104 0
-98 -106 0
-98 -107 0
-98 -108 0
-98 -109 0
-98 -110 0
-98 -251 0
-98 -253 0
-98 -254 0
-98 -256 0
-98 -257 0
-98 -258 0
-98 -259 0
-98 -260 0
-99 -101 0
-99 -102 0
-99 -103 0
-99 -104 0
-99 -105 0
-99 -106 0
-99 -107 0
-99 -108 0
-99 -109 0
-99 -251 0
-99 -252 0
-99 -253 0
-99 -255 0
-99 -256 0
-99 -257 0
-99 -258 0
-99 -259 0
-100 -102 0
-100 -103 0
-100 -104 0
-100 -105 0
-100 -106 0
-100 -107 0
-100 -108 0
-100 -109 0
-100 -110 0
-100 -252 0
-100 -253 0
-100 -254 0
-100 -255 0
-100 -256 0
-100 -257 0
-100 -258 0
-100 -259 0
-100 -260 0
-101 -111 0
-101 -113 0
-101 -114 0
-101 -116 0
-101 -117 0
-101 -118 0
-101 -119 0
-101 -120 0
-101 -261 0
-101 -263 0
-101 -264 0
-101 -266 0
-101 -267 0
-101 -268 0
-101 -269 0
-101 -270 0
-102 -111 0
-102 -112 0
-102 -114 0
-102 -115 0
-102 -116 0
-102 -117 0
-102 -118 0
-102 -119 0
-102 -120 0
-102 -261 0
-102 -262 0
-102 -263 0
-102 -264 0
-102 -265 0
-102 -267 0
-102 -268 0
-102 -269 0
-102 -270 0
-103 -111 0
-103 -112 0
-103 -113 0
-103 -115 0
-103 -116 0
-103 -117 0
-103 -118 0
-103 -119 0
-103 -120 0
-103 -261 0
-103 -262 0
-103 -263 0
-103 -264 0
-103 -265 0
-103 -266 0
-103 -268 0
-103 -269 0
-103 -270 0
-104 -112 0
-104 -113 0
-104 -114 0
-104 -115 0
-104 -116 0
-104 -117 0
-104 -118 0
-104 -119 0
-104 -120 0
-104 -261 0
-104 -262 0
-104 -263 0
-104 -264 0
-104 -265 0
-104 -266 0
-104 -267 0
-104 -269 0
-104 -270 0
-105 -111 0
-105 -112 0
-105 -113 0
-105 -114 0
-105 -115 0
-105 -117 0
-105 -118 0
-105 -120 0
-105 -261 0
-105 -262 0
-105 -264 0
-105 -265 0
-105 -266 0
-105 -267 0
-105 -268 0
-105 -270 0
-106 -111 0
-106 -112 0
-106 -113 0
-106 -114 0
-106 -115 0
-106 -116 0
-106 -118 0
-106 -119 0
-106 -120 0
-106 -261 0
-106 -262 0
-106 -263 0
-106 -265 0
-106 -266 0
-106 -267 0
-106 -268 0
-106 -269 0
-107 -111 0
-107 -112 0
-107 -113 0
-107 -114 0
-107 -115 0
-107 -116 0
-107 -117 0
-107 -119 0
-107 -120 0
-107 -262 0
-107 -263 0
-107 -264 0
-107 -265 0
-107 -266 0
-107 -267 0
-107 -268 0
-107 -269 0
-107 -270 0
-108 -111 0
-108 -113 0
-108 -114 0
-108 -116 0
-108 -117 0
-108 -118 0
-108 -119 0
-108 -120 0
-108 -261 0
-108 -263 0
-108 -264 0
-108 -266 0
-108 -267 0
-108 -268 0
-108 -269 0
-108 -270 0
-109 -111 0
-109 -112 0
-109 -113 0
-109 -114 0
-109 -115 0
-109 -116 0
-109 -117 0
-109 -118 0
-109 -119 0
-109 -261 0
-109 -262 0
-109 -263 0
-109 -265 0
-109 -266 0
-109 -267 0
-109 -268 0
-109 -269 0
-110 -112 0
-110 -113 0
-110 -114 0
-110 -115 0
-110 -116 0
-110 -117 0
-110 -118 0
-110 -119 0
-110 -120 0
-110 -262 0
-110 -263 0
-110 -264 0
-110 -265 0
-110 -266 0
-110 -267 0
-110 -268 0
-110 -269 0
-110 -270 0
-111 -121 0
-111 -123 0
-111 -124 0
-111 -126 0
-111 -127 0
-111 -128 0
-111 -129 0
-111 -130 0
-111 -271 0
-111 -273 0
-111 -274 0
-111 -276 0
-111 -277 0
-111 -278 0
-111 -279 0
-111 -280 0
-112 -121 0
-112 -122 0
-112 -124 0
-112 -125 0
-112 -126 0
-112 -127 0
-112 -128 0
-112 -129 0
-112 -130 0
-112 -271 0
-112 -272 0
-112 -273 0
-112 -274 0
-112 -275 0
-112 -277 0
-112 -278 0
-112 -279 0
-112 -280 0
-113 -121 0
-113 -122 0
-113 -123 0
-113 -125 0
-113 -126 0
-113 -127 0
-113 -128 0
-113 -129 0
-113 -130 0
-113 -271 0
-113 -272 0
-113 -273 0
-113 -274 0
-113 -275 0
-113 -276 0
-113 -278 0
-113 -279 0
-113 -280 0
-114 -122 0
-114 -123 0
-114 -124 0
-114 -125 0
-114 -126 0
-114 -127 0
-114 -128 0
-114 -129 0
-114 -130 0
-114 -271 0
-114 -272 0
-114 -273 0
-114 -274 0
-114 -275 0
-114 -276 0
-114 -277 0
-114 -279 0
-114 -280 0
-115 -121 0
-115 -122 0
-115 -123 0
-115 -124 0
-115 -125 0
-115 -127 0
-115 -128 0
-115 -130 0
-115 -271 0
-115 -272 0
-115 -274 0
-115 -275 0
-115 -276 0
-115 -277 0
-115 -278 0
-115 -280 0
-116 -121 0
-116 -122 0
-116 -123 0
-116 -124 0
-116 -125 0
-116 -126 0
-116 -128 0
-116 -129 0
-116 -130 0
-116 -271 0
-116 -272 0
-116 -273 0
-116 -275 0
-116 -276 0
-116 -277 0
-116 -278 0
-116 -279 0
-117 -121 0
-117 -122 0
-117 -123 0
-117 -124 0
-117 -125 0
-117 -126 0
-117 -127 0
-117 -129 0
-117 -130 0
-117 -272 0
-117 -273 0
-117 -274 0
-117 -275 0
-117 -276 0
-117 -277 0
-117 -278 0
-117 -279 0
-117 -280 0
-118 -121 0
-118 -123 0
-118 -124 0
-118 -126 0
-118 -127 0
-118 -128 0
-118 -129 0
-118 -130 0
-118 -271 0
-118 -273 0
-118 -274 0
-118 -276 0
-118 -277 0
-118 -278 0
-118 -279 0
-118 -280 0
-119 -121 0
-119 -122 0
-119 -123 0
-119 -124 0
-119 -125 0
-119 -126 0
-119 -127 0
-119 -128 0
-119 -129 0
-119 -271 0
-119 -272 0
-119 -273 0
-119 -275 0
-119 -276 0
-119 -277 0
-119 -278 0
-119 -279 0
-120 -122 0
-120 -123 0
-120 -124 0
-120 -125 0
-120 -126 0
-120 -127 0
-120 -128 0
-120 -129 0
-120 -130 0
-120 -272 0
-120 -273 0
-120 -274 0
-120 -275 0
-120 -276 0
-120 -277 0
-120 -278 0
-120 -279 0
-120 -280 0
-121 -131 0
-121 -133 0
-121 -134 0
-121 -136 0
-121 -137 0
-121 -138 0
-121 -139 0
-121 -140 0
-121 -281 0
-121 -283 0
-121 -284 0
-121 -286 0
-121 -287 0
-121 -288 0
-121 -289 0
-121 -290 0
-122 -131 0
-122 -132 0
-122 -134 0
-122 -135 0
-122 -136 0
-122 -137 0
-122 -138 0
-122 -139 0
-122 -140 0
-122 -281 0
-122 -282 0
-122 -283 0
-122 -284 0
-122 -285 0
-122 -287 0
-122 -288 0
-122 -289 0
-122 -290 0
-123 -131 0
-123 -132 0
-123 -133 0
-123 -135 0
-123 -136 0
-123 -137 0
-123 -138 0
-123 -139 0
-123 -140 0
-123 -281 0
-123 -282 0
-123 -283 0
-123 -284 0
-123 -285 0
-123 -286 0
-123 -288 0
-123 -289 0
-123 -290 0
-124 -132 0
-124 -133 0
-124 -134 0
-124 -135 0
-124 -136 0
-124 -137 0
-124 -138 0
-124 -139 0
-124 -140 0
-124 -281 0
-124 -282 0
-124 -283 0
-124 -284 0
-124 -285 0
-124 -286 0
-124 -287 0
-124 -289 0
-124 -290 0
-125 -131 0
-125 -132 0
-125 -133 0
-125 -134 0
-125 -135 0
-125 -137 0
-125 -138 0
-125 -140 0
-125 -281 0
-125 -282 0
-125 -284 0
-125 -285 0
-125 -286 0
-125 -287 0
-125 -288 0
-125 -290 0
-126 -131 0
-126 -132 0
-126 -133 0
-126 -134 0
-126 -135 0
-126 -136 0
-126 -138 0
-126 -139 0
-126 -140 0
-126 -281 0
-126 -282 0
-126 -283 0
-126 -285 0
-126 -286 0
-126 -287 0
-126 -288 0
-126 -289 0
-127 -131 0
-127 -132 0
-127 -133 0
-127 -134 0
-127 -135 0
-127 -136 0
-127 -137 0
-127 -139 0
-127 -140 0
-127 -282 0
-127 -283 0
-127 -284 0
-127 -285 0
-127 -286 0
-127 -287 0
-127 -288 0
-127 -289 0
-127 -290 0
-128 -131 0
-128 -133 0
-128 -134 0
-128 -136 0
-128 -137 0
-128 -138 0
-128 -139 0
-128 -140 0
-128 -281 0
-128 -283 0
-128 -284 0
-128 -286 0
-128 -287 0
-128 -288 0
-128 -289 0
-128 -290 0
-129 -131 0
-129 -132 0
-129 -133 0
-129 -134 0
-129 -135 0
-129 -136 0
-129 -137 0
-129 -138 0
-129 -139 0
-129 -281 0
-129 -282 0
-129 -283 0
-129 -285 0
-129 -286 0
-129 -287 0
-129 -288 0
-129 -289 0
-130 -132 0
-130 -133 0
-130 -134 0
-130 -135 0
-130 -136 0
-130 -137 0
-130 -138 0
-130 -139 0
-130 -140 0
-130 -282 0
-130 -283 0
-130 -284 0
-130 -285 0
-130 -286 0
-130 -287 0
-130 -288 0
-130 -289 0
-130 -290 0
-131 -141 0
-131 -143 0
-131 -144 0
-131 -146 0
-131 -147 0
-131 -148 0
-131 -149 0
-131 -150 0
-131 -291 0
-131 -293 0
-131 -294 0
-131 -296 0
-131 -297 0
-131 -298 0
-131 -299 0
-131 -300 0
-132 -141 0
-132 -142 0
-132 -144 0
-132 -145 0
-132 -146 0
-132 -147 0
-132 -148 0
-132 -149 0
-132 -150 0
-132 -291 0
-132 -292 0
-132 -293 0
-132 -294 0
-132 -295 0
-132 -297 0
-132 -298 0
-132 -299 0
-132 -300 0
-133 -141 0
-133 -142 0
-133 -143 0
-133 -145 0
-133 -146 0
-133 -147 0
-133 -148 0
-133 -149 0
-133 -150 0
-133 -291 0
-133 -292 0
-133 -293 0
-133 -294 0
-133 -295 0
-133 -296 0
-133 -298 0
-133 -299 0
-133 -300 0
-134 -142 0
-134 -143 0
-134 -144 0
-134 -145 0
-134 -146 0
-134 -147 0
-134 -148 0
-134 -149 0
-134 -150 0
-134 -291 0
-134 -292 0
-134 -293 0
-134 -294 0
-134 -295 0
-134 -296 0
-134 -297 0
-134 -299 0
-134 -300 0
-135 -141 0
-135 -142 0
-135 -143 0
-135 -144 0
-135 -145 0
-135 -147 0
-135 -148 0
-135 -150 0
-135 -291 0
-135 -292 0
-135 -294 0
-135 -295 0
-135 -296 0
-135 -297 0
-135 -298 0
-135 -300 0
-136 -141 0
-136 -142 0
-136 -143 0
-136 -144 0
-136 -145 0
-136 -146 0
-136 -148 0
-136 -149 0
-136 -150 0
-136 -291 0
-136 -292 0
-136 -293 0
-136 -295 0
-136 -296 0
-136 -297 0
-136 -298 0
-136 -299 0
-137 -141 0
-137 -142 0
-137 -143 0
-137 -144 0
-137 -145 0
-137 -146 0
-137 -147 0
-137 -149 0
-137 -150 0
-137 -292 0
-137 -293 0
-137 -294 0
-137 -295 0
-137 -296 0
-137 -297 0
-137 -298 0
-137 -299 0
-137 -300 0
-138 -141 0
-138 -143 0
-138 -144 0
-138 -146 0
-138 -147 0
-138 -148 0
-138 -149 0
-138 -150 0
-138 -291 0
-138 -293 0
-138 -294 0
-138 -296 0
-138 -297 0
-138 -298 0
-138 -299 0
-138 -300 0
-139 -141 0
-139 -142 0
-139 -143 0
-139 -144 0
-139 -145 0
-139 -146 0
-139 -147 0
-139 -148 0
-139 -149 0
-139 -291 0
-139 -292 0
-139 -293 0
-139 -295 0
-139 -296 0
-139 -297 0
-139 -298 0
-139 -299 0
-140 -142 0
-140 -143 0
-140 -144 0
-140 -145 0
-140 -146 0
-140 -147 0
-140 -148 0
-140 -149 0
-140 -150 0
-140 -292 0
-140 -293 0
-140 -294 0
-140 -295 0
-140 -296 0
-140 -297 0
-140 -298 0
-140 -299 0
-140 -300 0
-141 -151 0
-141 -153 0
-141 -154 0
-141 -156 0
-141 -157 0
-141 -158 0
-141 -159 0
-141 -160 0
-141 -301 0
-141 -303 0
-141 -304 0
-141 -306 0
-141 -307 0
-141 -308 0
-141 -309 0
-141 -310 0
-142 -151 0
-142 -152 0
-142 -154 0
-142 -155 0
-142 -156 0
-142 -157 0
-142 -158 0
-142 -159 0
-142 -160 0
-142 -301 0
-142 -302 0
-142 -303 0
-142 -304 0
-142 -305 0
-142 -307 0
-142 -308 0
-142 -309 0
-142 -310 0
-143 -151 0
-143 -152 0
-143 -153 0
-143 -155 0
-143 -156 0
-143 -157 0
-143 -158 0
-143 -159 0
-143 -160 0
-143 -301 0
-143 -302 0
-143 -303 0
-143 -304 0
-143 -305 0
-143 -306 0
-143 -308 0
-143 -309 0
-143 -310 0
-144 -152 0
-144 -153 0
-144 -154 0
-144 -155 0
-144 -156 0
-144 -157 0
-144 -158 0
-144 -159 0
-144 -160 0
-144 -301 0
-144 -302 0
-144 -303 0
-144 -304 0
-144 -305 0
-144 -306 0
-144 -307 0
-144 -309 0
-144 -310 0
-145 -151 0
-145 -152 0
-145 -153 0
-145 -154 0
-145 -155 0
-145 -157 0
-145 -158 0
-145 -160 0
-145 -301 0
-145 -302 0
-145 -304 0
-145 -305 0
-145 -306 0
-145 -307 0
-145 -308 0
-145 -310 0
-146 -151 0
-146 -152 0
-146 -153 0
-146 -154 0
-146 -155 0
-146 -156 0
-146 -158 0
-146 -159 0
-146 -160 0
-146 -301 0
-146 -302 0
-146 -303 0
-146 -305 0
-146 -306 0
-146 -307 0
-146 -308 0
-146 -309 0
-147 -151 0
-147 -152 0
-147 -153 0
-147 -154 0
-147 -155 0
-147 -156 0
-147 -157 0
-147 -159 0
-147 -160 0
-147 -302 0
-147 -303 0
-147 -304 0
-147 -305 0
-147 -306 0
-147 -307 0
-147 -308 0
-147 -309 0
-147 -310 0
-148 -151 0
-148 -153 0
-148 -154 0
-148 -156 0
-148 -157 0
-148 -158 0
-148 -159 0
-148 -160 0
-148 -301 0
-148 -303 0
-148 -304 0
-148 -306 0
-148 -307 0
-148 -308 0
-148 -309 0
-148 -310 0
-149 -151 0
-149 -152 0
-149 -153 0
-149 -154 0
-149 -155 0
-149 -156 0
-149 -157 0
-149 -158 0
-149 -159 0
-149 -301 0
-149 -302 0
-149 -303 0
-149 -305 0
-149 -306 0
-149 -307 0
-149 -308 0
-149 -309 0
-150 -152 0
-150 -153 0
-150 -154 0
-150 -155 0
-150 -156 0
-150 -157 0
-150 -158 0
-150 -159 0
-150 -160 0
-150 -302 0
-150 -303 0
-150 -304 0
-150 -305 0
-150 -306 0
-150 -307 0
-150 -308 0
-150 -309 0
-150 -310 0
-151 -311 0
-151 -313 0
-151 -314 0
-151 -316 0
-151 -317 0
-151 -318 0
-151 -319 0
-151 -320 0
-152 -311 0
-152 -312 0
-152 -313 0
-152 -314 0
-152 -315 0
-152 -317 0
-152 -318 0
-152 -319 0
-152 -320 0
-153 -311 0
-153 -312 0
-153 -313 0
-153 -314 0
-153 -315 0
-153 -316 0
-153 -318 0
-153 -319 0
-153 -320 0
-154 -311 0
-154 -312 0
-154 -313 0
-154 -314 0
-154 -315 0
-154 -316 0
-154 -317 0
-154 -319 0
-154 -320 0
-155 -311 0
-155 -312 0
-155 -314 0
-155 -315 0
-155 -316 0
-155 -317 0
-155 -318 0
-155 -320 0
-156 -311 0
-156 -312 0
-156 -313 0
-156 -315 0
-156 -316 0
-156 -317 0
-156 -318 0
-156 -319 0
-157 -312 0
-157 -313 0
-157 -314 0
-157 -315 0
-157 -316 0
-157 -317 0
-157 -318 0
-157 -319 0
-157 -320 0
-158 -311 0
-158 -313 0
-158 -314 0
-158 -316 0
-158 -317 0
-158 -318 0
-158 -319 0
-158 -320 0
-159 -311 0
-159 -312 0
-159 -313 0
-159 -315 0
-159 -316 0
-159 -317 0
-159 -318 0
-159 -319 0
-160 -312 0
-160 -313 0
-160 -314 0
-160 -315 0
-160 -316 0
-160 -317 0
-160 -318 0
-160 -319 0
-160 -320 0
-161 -171 0
-161 -173 0
-161 -174 0
-161 -176 0
-161 -177 0
-161 -178 0
-161 -179 0
-161 -180 0
-161 -321 0
-161 -323 0
-161 -324 0
-161 -326 0
-161 -327 0
-161 -328 0
-161 -329 0
-161 -330 0
-162 -171 0
-162 -172 0
-162 -174 0
-162 -175 0
-162 -176 0
-162 -177 0
-162 -178 0
-162 -179 0
-162 -180 0
-162 -321 0
-162 -322 0
-162 -323 0
-162 -324 0
-162 -325 0
-162 -327 0
-162 -328 0
-162 -329 0
-162 -330 0
-163 -171 0
-163 -172 0
-163 -173 0
-163 -175 0
-163 -176 0
-163 -177 0
-163 -178 0
-163 -179 0
-163 -180 0
-163 -321 0
-163 -322 0
-163 -323 0
-163 -324 0
-163 -325 0
-163 -326 0
-163 -328 0
-163 -329 0
-163 -330 0
-164 -172 0
-164 -173 0
-164 -174 0
-164 -175 0
-164 -176 0
-164 -177 0
-164 -178 0
-164 -179 0
-164 -180 0
-164 -321 0
-164 -322 0
-164 -323 0
-164 -324 0
-164 -325 0
-164 -326 0
-164 -327 0
-164 -329 0
-164 -330 0
-165 -171 0
-165 -172 0
-165 -173 0
-165 -174 0
-165 -175 0
-165 -177 0
-165 -178 0
-165 -180 0
-165 -321 0
-165 -322 0
-165 -324 0
-165 -325 0
-165 -326 0
-165 -327 0
-165 -328 0
-165 -330 0
-166 -171 0
-166 -172 0
-166 -173 0
-166 -174 0
-166 -175 0
-166 -176 0
-166 -178 0
-166 -179 0
-166 -180 0
-166 -321 0
-166 -322 0
-166 -323 0
-166 -325 0
-166 -326 0
-166 -327 0
-166 -328 0
-166 -329 0
-167 -171 0
-167 -172 0
-167 -173 0
-167 -174 0
-167 -175 0
-167 -176 0
-167 -177 0
-167 -179 0
-167 -180 0
-167 -322 0
-167 -323 0
-167 -324 0
-167 -325 0
-167 -326 0
-167 -327 0
-167 -328 0
-167 -329 0
-167 -330 0
-168 -171 0
-168 -173 0
-168 -174 0
-168 -176 0
-168 -177 0
-168 -178 0
-168 -179 0
-168 -180 0
-168 -321 0
-168 -323 0
-168 -324 0
-168 -326 0
-168 -327 0
-168 -328 0
-168 -329 0
-168 -330 0
-169 -171 0
-169 -172 0
-169 -173 0
-169 -174 0
-169 -175 0
-169 -176 0
-169 -177 0
-169 -178 0
-169 -179 0
-169 -321 0
-169 -322 0
-169 -323 0
-169 -325 0
-169 -326 0
-169 -327 0
-169 -328 0
-169 -329 0
-170 -172 0
-170 -173 0
-170 -174 0
-170 -175 0
-170 -176 0
-170 -177 0
-170 -178 0
-170 -179 0
-170 -180 0
-170 -322 0
-170 -323 0
-170 -324 0
-170 -325 0
-170 -326 0
-170 -327 0
-170 -328 0
-170 -329 0
-170 -330 0
-171 -181 0
-171 -183 0
-171 -184 0
-171 -186 0
-171 -187 0
-171 -188 0
-171 -189 0
-171 -190 0
-171 -331 0
-171 -333 0
-171 -334 0
-171 -336 0
-171 -337 0
-171 -338 0
-171 -339 0
-171 -340 0
-172 -181 0
-172 -182 0
-172 -184 0
-172 -185 0
-172 -186 0
-172 -187 0
-172 -188 0
-172 -189 0
-172 -190 0
-172 -331 0
-172 -332 0
-172 -333 0
-172 -334 0
-172 -335 0
-172 -337 0
-172 -338 0
-172 -339 0
-172 -340 0
-173 -181 0
-173 -182 0
-173 -183 0
-173 -185 0
-173 -186 0
-173 -187 0
-173 -188 0
-173 -189 0
-173 -190 0
-173 -331 0
-173 -332 0
-173 -333 0
-173 -334 0
-173 -335 0
-173 -336 0
-173 -338 0
-173 -339 0
-173 -340 0
-174 -182 0
-174 -183 0
-174 -184 0
-174 -185 0
-174 -186 0
-174 -187 0
-174 -188 0
-174 -189 0
-174 -190 0
-174 -331 0
-174 -332 0
-174 -333 0
-174 -334 0
-174 -335 0
-174 -336 0
-174 -337 0
-174 -339 0
-174 -340 0
-175 -181 0
-175 -182 0
-175 -183 0
-175 -184 0
-175 -185 0
-175 -187 0
-175 -188 0
-175 -190 0
-175 -331 0
-175 -332 0
-175 -334 0
-175 -335 0
-175 -336 0
-175 -337 0
-175 -338 0
-175 -340 0
-176 -181 0
-176 -182 0
-176 -183 0
-176 -184 0
-176 -185 0
-176 -186 0
-176 -188 0
-176 -189 0
-176 -190 0
-176 -331 0
-176 -332 0
-176 -333 0
-176 -335 0
-176 -336 0
-176 -337 0
-176 -338 0
-176 -339 0
-177 -181 0
-177 -182 0
-177 -183 0
-177 -184 0
-177 -185 0
-177 -186 0
-177 -187 0
-177 -189 0
-177 -190 0
-177 -332 0
-177 -333 0
-177 -334 0
-177 -335 0
-177 -336 0
-177 -337 0
-177 -338 0
-177 -339 0
-177 -340 0
-178 -181 0
-178 -183 0
-178 -184 0
-178 -186 0
-178 -187 0
-178 -188 0
-178 -189 0
-178 -190 0
-178 -331 0
-178 -333 0
-178 -334 0
-178 -336 0
-178 -337 0
-178 -338 0
-178 -339 0
-178 -340 0
-179 -181 0
-179 -182 0
-179 -183 0
-179 -184 0
-179 -185 0
-179 -186 0
-179 -187 0
-179 -188 0
-179 -189 0
-179 -331 0
-179 -332 0
-179 -333 0
-179 -335 0
-179 -336 0
-179 -337 0
-179 -338 0
-179 -339 0
-180 -182 0
-180 -183 0
-180 -184 0
-180 -185 0
-180 -186 0
-180 -187 0
-180 -188 0
-180 -189 0
-180 -190 0
-180 -332 0
-180 -333 0
-180 -334 0
-180 -335 0
-180 -336 0
-180 -337 0
-180 -338 0
-180 -339 0
-180 -340 0
-181 -191 0
-181 -193 0
-181 -194 0
-181 -196 0
-181 -197 0
-181 -198 0
-181 -199 0
-181 -200 0
-181 -341 0
-181 -343 0
-181 -344 0
-181 -346 0
-181 -347 0
-181 -348 0
-181 -349 0
-181 -350 0
-182 -191 0
-182 -192 0
-182 -194 0
-182 -195 0
-182 -196 0
-182 -197 0
-182 -198 0
-182 -199 0
-182 -200 0
-182 -341 0
-182 -342 0
-182 -343 0
-182 -344 0
-182 -345 0
-182 -347 0
-182 -348 0
-182 -349 0
-182 -350 0
-183 -191 0
-183 -192 0
-183 -193 0
-183 -195 0
-183 -196 0
-183 -197 0
-183 -198 0
-183 -199 0
-183 -200 0
-183 -341 0
-183 -342 0
-183 -343 0
-183 -344 0
-183 -345 0
-183 -346 0
-183 -348 0
-183 -349 0
-183 -350 0
-184 -192 0
-184 -193 0
-184 -194 0
-184 -195 0
-184 -196 0
-184 -197 0
-184 -198 0
-184 -199 0
-184 -200 0
-184 -341 0
-184 -342 0
-184 -343 0
-184 -344 0
-184 -345 0
-184 -346 0
-184 -347 0
-184 -349 0
-184 -350 0
-185 -191 0
-185 -192 0
-185 -193 0
-185 -194 0
-185 -195 0
-185 -197 0
-185 -198 0
-185 -200 0
-185 -341 0
-185 -342 0
-185 -344 0
-185 -345 0
-185 -346 0
-185 -347 0
-185 -348 0
-185 -350 0
-186 -191 0
-186 -192 0
-186 -193 0
-186 -194 0
-186 -195 0
-186 -196 0
-186 -198 0
-186 -199 0
-186 -200 0
-186 -341 0
-186 -342 0
-186 -343 0
-186 -345 0
-186 -346 0
-186 -347 0
-186 -348 0
-186 -349 0
-187 -191 0
-187 -192 0
-187 -193 0
-187 -194 0
-187 -195 0
-187 -196 0
-187 -197 0
-187 -199 0
-187 -200 0
-187 -342 0
-187 -343 0
-187 -344 0
-187 -345 0
-187 -346 0
-187 -347 0
-187 -348 0
-187 -349 0
-187 -350 0
-188 -191 0
-188 -193 0
-188 -194 0
-188 -196 0
-188 -197 0
-188 -198 0
-188 -199 0
-188 -200 0
-188 -341 0
-188 -343 0
-188 -344 0
-188 -346 0
-188 -347 0
-188 -348 0
-188 -349 0
-188 -350 0
-189 -191 0
-189 -192 0
-189 -193 0
-189 -194 0
-189 -195 0
-189 -196 0
-189 -197 0
-189 -198 0
-189 -199 0
-189 -341 0
-189 -342 0
-189 -343 0
-189 -345 0
-189 -346 0
-189 -347 0
-189 -348 0
-189 -349 0
-190 -192 0
-190 -193 0
-190 -194 0
-190 -195 0
-190 -196 0
-190 -197 0
-190 -198 0
-190 -199 0
-190 -200 0
-190 -342 0
-190 -343 0
-190 -344 0
-190 -345 0
-190 -346 0
-190 -347 0
-190 -348 0
-190 -349 0
-190 -350 0
-191 -201 0
-191 -203 0
-191 -204 0
-191 -206 0
-191 -207 0
-191 -208 0
-191 -209 0
-191 -210 0
-191 -351 0
-191 -353 0
-191 -354 0
-191 -356 0
-191 -357 0
-191 -358 0
-191 -359 0
-191 -360 0
-192 -201 0
-192 -202 0
-192 -204 0
-192 -205 0
-192 -206 0
-192 -207 0
-192 -208 0
-192 -209 0
-192 -210 0
-192 -351 0
-192 -352 0
-192 -353 0
-192 -354 0
-192 -355 0
-192 -357 0
-192 -358 0
-192 -359 0
-192 -360 0
-193 -201 0
-193 -202 0
-193 -203 0
-193 -205 0
-193 -206 0
-193 -207 0
-193 -208 0
-193 -209 0
-193 -210 0
-193 -351 0
-193 -352 0
-193 -353 0
-193 -354 0
-193 -355 0
-193 -356 0
-193 -358 0
-193 -359 0
-193 -360 0
-194 -202 0
-194 -203 0
-194 -204 0
-194 -205 0
-194 -206 0
-194 -207 0
-194 -208 0
-194 -209 0
-194 -210 0
-194 -351 0
-194 -352 0
-194 -353 0
-194 -354 0
-194 -355 0
-194 -356 0
-194 -357 0
-194 -359 0
-194 -360 0
-195 -201 0
-195 -202 0
-195 -203 0
-195 -204 0
-195 -205 0
-195 -207 0
-195 -208 0
-195 -210 0
-195 -351 0
-195 -352 0
-195 -354 0
-195 -355 0
-195 -356 0
-195 -357 0
-195 -358 0
-195 -360 0
-196 -201 0
-196 -202 0
-196 -203 0
-196 -204 0
-196 -205 0
-196 -206 0
-196 -208 0
-196 -209 0
-196 -210 0
-196 -351 0
-196 -352 0
-196 -353 0
-196 -355 0
-196 -356 0
-196 -357 0
-196 -358 0
-196 -359 0
-197 -201 0
-197 -202 0
-197 -203 0
-197 -204 0
-197 -205 0
-197 -206 0
-197 -207 0
-197 -209 0
-197 -210 0
-197 -352 0
-197 -353 0
-197 -354 0
-197 -355 0
-197 -356 0
-197 -357 0
-197 -358 0
-197 -359 0
-197 -360 0
-198 -201 0
-198 -203 0
-198 -204 0
-198 -206 0
-198 -207 0
-198 -208 0
-198 -209 0
-198 -210 0
-198 -351 0
-198 -353 0
-198 -354 0
-198 -356 0
-198 -357 0
-198 -358 0
-198 -359 0
-198 -360 0
-199 -201 0
-199 -202 0
-199 -203 0
-199 -204 0
-199 -205 0
-199 -206 0
-199 -207 0
-199 -208 0
-199 -209 0
-199 -351 0
-199 -352 0
-199 -353 0
-199 -355 0
-199 -356 0
-199 -357 0
-199 -358 0
-199 -359 0
-200 -202 0
-200 -203 0
-200 -204 0
-200 -205 0
-200 -206 0
-200 -207 0
-200 -208 0
-200 -209 0
-200 -210 0
-200 -352 0
-200 -353 0
-200 -354 0
-200 -355 0
-200 -356 0
-200 -357 0
-200 -358 0
-200 -359 0
-200 -360 0
-201 -211 0
-201 -213 0
-201 -214 0
-201 -216 0
-201 -217 0
-201 -218 0
-201 -219 0
-201 -220 0
-201 -361 0
-201 -363 0
-201 -364 0
-201 -366 0
-201 -367 0
-201 -368 0
-201 -369 0
-201 -370 0
-202 -211 0
-202 -212 0
-202 -214 0
-202 -215 0
-202 -216 0
-202 -217 0
-202 -218 0
-202 -219 0
-202 -220 0
-202 -361 0
-202 -362 0
-202 -363 0
-202 -364 0
-202 -365 0
-202 -367 0
-202 -368 0
-202 -369 0
-202 -370 0
-203 -211 0
-203 -212 0
-203 -213 0
-203 -215 0
-203 -216 0
-203 -217 0
-203 -218 0
-203 -219 0
-203 -220 0
-203 -361 0
-203 -362 0
-203 -363 0
-203 -364 0
-203 -365 0
-203 -366 0
-203 -368 0
-203 -369 0
-203 -370 0
-204 -212 0
-204 -213 0
-204 -214 0
-204 -215 0
-204 -216 0
-204 -217 0
-204 -218 0
-204 -219 0
-204 -220 0
-204 -361 0
-204 -362 0
-204 -363 0
-204 -364 0
-204 -365 0
-204 -366 0
-204 -367 0
-204 -369 0
-204 -370 0
-205 -211 0
-205 -212 0
-205 -213 0
-205 -214 0
-205 -215 0
-205 -217 0
-205 -218 0
-205 -220 0
-205 -361 0
-205 -362 0
-205 -364 0
-205 -365 0
-205 -366 0
-205 -367 0
-205 -368 0
-205 -370 0
-206 -211 0
-206 -212 0
-206 -213 0
-206 -214 0
-206 -215 0
-206 -216 0
-206 -218 0
-206 -219 0
-206 -220 0
-206 -361 0
-206 -362 0
-206 -363 0
-206 -365 0
-206 -366 0
-206 -367 0
-206 -368 0
-206 -369 0
-207 -211 0
-207 -212 0
-207 -213 0
-207 -214 0
-207 -215 0
-207 -216 0
-207 -217 0
-207 -219 0
-207 -220 0
-207 -362 0
-207 -363 0
-207 -364 0
-207 -365 0
-207 -366 0
-207 -367 0
-207 -368 0
-207 -369 0
-207 -370 0
-208 -211 0
-208 -213 0
-208 -214 0
-208 -216 0
-208 -217 0
-208 -218 0
-208 -219 0
-208 -220 0
-208 -361 0
-208 -363 0
-208 -364 0
-208 -366 0
-208 -367 0
-208 -368 0
-208 -369 0
-208 -370 0
-209 -211 0
-209 -212 0
-209 -213 0
-209 -214 0
-209 -215 0
-209 -216 0
-209 -217 0
-209 -218 0
-209 -219 0
-209 -361 0
-209 -362 0
-209 -363 0
-209 -365 0
-209 -366 0
-209 -367 0
-209 -368 0
-209 -369 0
-210 -212 0
-210 -213 0
-210 -214 0
-210 -215 0
-210 -216 0
-210 -217 0
-210 -218 0
-210 -219 0
-210 -220 0
-210 -362 0
-210 -363 0
-210 -364 0
-210 -365 0
-210 -366 0
-210 -367 0
-210 -368 0
-210 -369 0
-210 -370 0
-211 -221 0
-211 -223 0
-211 -224 0
-211 -226 0
-211 -227 0
-211 -228 0
-211 -229 0
-211 -230 0
-211 -371 0
-211 -373 0
-211 -374 0
-211 -376 0
-211 -377 0
-211 -378 0
-211 -379 0
-211 -380 0
-212 -221 0
-212 -222 0
-212 -224 0
-212 -225 0
-212 -226 0
-212 -227 0
-212 -228 0
-212 -229 0
-212 -230 0
-212 -371 0
-212 -372 0
-212 -373 0
-212 -374 0
-212 -375 0
-212 -377 0
-212 -378 0
-212 -379 0
-212 -380 0
-213 -221 0
-213 -222 0
-213 -223 0
-213 -225 0
-213 -226 0
-213 -227 0
-213 -228 0
-213 -229 0
-213 -230 0
-213 -371 0
-213 -372 0
-213 -373 0
-213 -374 0
-213 -375 0
-213 -376 0
-213 -378 0
-213 -379 0
-213 -380 0
-214 -222 0
-214 -223 0
-214 -224 0
-214 -225 0
-214 -226 0
-214 -227 0
-214 -228 0
-214 -229 0
-214 -230 0
-214 -371 0
-214 -372 0
-214 -373 0
-214 -374 0
-214 -375 0
-214 -376 0
-214 -377 0
-214 -379 0
-214 -380 0
-215 -221 0
-215 -222 0
-215 -223 0
-215 -224 0
-215 -225 0
-215 -227 0
-215 -228 0
-215 -230 0
-215 -371 0
-215 -372 0
-215 -374 0
-215 -375 0
-215 -376 0
-215 -377 0
-215 -378 0
-215 -380 0
-216 -221 0
-216 -222 0
-216 -223 0
-216 -224 0
-216 -225 0
-216 -226 0
-216 -228 0
-216 -229 0
-216 -230 0
-216 -371 0
-216 -372 0
-216 -373 0
-216 -375 0
-216 -376 0
-216 -377 0
-216 -378 0
-216 -379 0
-217 -221 0
-217 -222 0
-217 -223 0
-217 -224 0
-217 -225 0
-217 -226 0
-217 -227 0
-217 -229 0
-217 -230 0
-217 -372 0
-217 -373 0
-217 -374 0
-217 -375 0
-217 -376 0
-217 -377 0
-217 -378 0
-217 -379 0
-217 -380 0
-218 -221 0
-218 -223 0
-218 -224 0
-218 -226 0
-218 -227 0
-218 -228 0
-218 -229 0
-218 -230 0
-218 -371 0
-218 -373 0
-218 -374 0
-218 -376 0
-218 -377 0
-218 -378 0
-218 -379 0
-218 -380 0
-219 -221 0
-219 -222 0
-219 -223 0
-219 -224 0
-219 -225 0
-219 -226 0
-219 -227 0
-219 -228 0
-219 -229 0
-219 -371 0
-219 -372 0
-219 -373 0
-219 -375 0
-219 -376 0
-219 -377 0
-219 -378 0
-219 -379 0
-220 -222 0
-220 -223 0
-220 -224 0
-220 -225 0
-220 -226 0
-220 -227 0
-220 -228 0
-220 -229 0
-220 -230 0
-220 -372 0
-220 -373 0
-220 -374 0
-220 -375 0
-220 -376 0
-220 -377 0
-220 -378 0
-220 -379 0
-220 -380 0
-221 -231 0
-221 -233 0
-221 -234 0
-221 -236 0
-221 -237 0
-221 -238 0
-221 -239 0
-221 -240 0
-221 -381 0
-221 -383 0
-221 -384 0
-221 -386 0
-221 -387 0
-221 -388 0
-221 -389 0
-221 -390 0
-222 -231 0
-222 -232 0
-222 -234 0
-222 -235 0
-222 -236 0
-222 -237 0
-222 -238 0
-222 -239 0
-222 -240 0
-222 -381 0
-222 -382 0
-222 -383 0
-222 -384 0
-222 -385 0
-222 -387 0
-222 -388 0
-222 -389 0
-222 -390 0
-223 -231 0
-223 -232 0
-223 -233 0
-223 -235 0
-223 -236 0
-223 -237 0
-223 -238 0
-223 -239 0
-223 -240 0
-223 -381 0
-223 -382 0
-223 -383 0
-223 -384 0
-223 -385 0
-223 -386 0
-223 -388 0
-223 -389 0
-223 -390 0
-224 -232 0
-224 -233 0
-224 -234 0
-224 -235 0
-224 -236 0
-224 -237 0
-224 -238 0
-224 -239 0
-224 -240 0
-224 -381 0
-224 -382 0
-224 -383 0
-224 -384 0
-224 -385 0
-224 -386 0
-224 -387 0
-224 -389 0
-224 -390 0
-225 -231 0
-225 -232 0
-225 -233 0
-225 -234 0
-225 -235 0
-225 -237 0
-225 -238 0
-225 -240 0
-225 -381 0
-225 -382 0
-225 -384 0
-225 -385 0
-225 -386 0
-225 -387 0
-225 -388 0
-225 -390 0
-226 -231 0
-226 -232 0
-226 -233 0
-226 -234 0
-226 -235 0
-226 -236 0
-226 -238 0
-226 -239 0
-226 -240 0
-226 -381 0
-226 -382 0
-226 -383 0
-226 -385 0
-226 -386 0
-226 -387 0
-226 -388 0
-226 -389 0
-227 -231 0
-227 -232 0
-227 -233 0
-227 -234 0
-227 -235 0
-227 -236 0
-227 -237 0
-227 -239 0
-227 -240 0
-227 -382 0
-227 -383 0
-227 -384 0
-227 -385 0
-227 -386 0
-227 -387 0
-227 -388 0
-227 -389 0
-227 -390 0
-228 -231 0
-228 -233 0
-228 -234 0
-228 -236 0
-228 -237 0
-228 -238 0
-228 -239 0
-228 -240 0
-228 -381 0
-228 -383 0
-228 -384 0
-228 -386 0
-228 -387 0
-228 -388 0
-228 -389 0
-228 -390 0
-229 -231 0
-229 -232 0
-229 -233 0
-229 -234 0
-229 -235 0
-229 -236 0
-229 -237 0
-229 -238 0
-229 -239 0
-229 -381 0
-229 -382 0
-229 -383 0
-229 -385 0
-229 -386 0
-229 -387 0
-229 -388 0
-229 -389 0
-230 -232 0
-230 -233 0
-230 -234 0
-230 -235 0
-230 -236 0
-230 -237 0
-230 -238 0
-230 -239 0
-230 -240 0
-230 -382 0
-230 -383 0
-230 -384 0
-230 -385 0
-230 -386 0
-230 -387 0
-230 -388 0
-230 -389 0
-230 -390 0
-231 -241 0
-231 -243 0
-231 -244 0
-231 -246 0
-231 -247 0
-231 -248 0
-231 -249 0
-231 -250 0
-231 -391 0
-231 -393 0
-231 -394 0
-231 -396 0
-231 -397 0
-231 -398 0
-231 -399 0
-231 -400 0
-232 -241 0
-232 -242 0
-232 -244 0
-232 -245 0
-232 -246 0
-232 -247 0
-232 -248 0
-232 -249 0
-232 -250 0
-232 -391 0
-232 -392 0
-232 -393 0
-232 -394 0
-232 -395 0
-232 -397 0
-232 -398 0
-232 -399 0
-232 -400 0
-233 -241 0
-233 -242 0
-233 -243 0
-233 -245 0
-233 -246 0
-233 -247 0
-233 -248 0
-233 -249 0
-233 -250 0
-233 -391 0
-233 -392 0
-233 -393 0
-233 -394 0
-233 -395 0
-233 -396 0
-233 -398 0
-233 -399 0
-233 -400 0
-234 -242 0
-234 -243 0
-234 -244 0
-234 -245 0
-234 -246 0
-234 -247 0
-234 -248 0
-234 -249 0
-234 -250 0
-234 -391 0
-234 -392 0
-234 -393 0
-234 -394 0
-234 -395 0
-234 -396 0
-234 -397 0
-234 -399 0
-234 -400 0
-235 -241 0
-235 -242 0
-235 -243 0
-235 -244 0
-235 -245 0
-235 -247 0
-235 -248 0
-235 -250 0
-235 -391 0
-235 -392 0
-235 -394 0
-235 -395 0
-235 -396 0
-235 -397 0
-235 -398 0
-235 -400 0
-236 -241 0
-236 -242 0
-236 -243 0
-236 -244 0
-236 -245 0
-236 -246 0
-236 -248 0
-236 -249 0
-236 -250 0
-236 -391 0
-236 -392 0
-236 -393 0
-236 -395 0
-236 -396 0
-236 -397 0
-236 -398 0
-236 -399 0
-237 -241 0
-237 -242 0
-237 -243 0
-237 -244 0
-237 -245 0
-237 -246 0
-237 -247 0
-237 -249 0
-237 -250 0
-237 -392 0
-237 -393 0
-237 -394 0
-237 -395 0
-237 -396 0
-237 -397 0
-237 -398 0
-237 -399 0
-237 -400 0
-238 -241 0
-238 -243 0
-238 -244 0
-238 -246 0
-238 -247 0
-238 -248 0
-238 -249 0
-238 -250 0
-238 -391 0
-238 -393 0
-238 -394 0
-238 -396 0
-238 -397 0
-238 -398 0
-238 -399 0
-238 -400 0
-239 -241 0
-239 -242 0
-239 -243 0
-239 -244 0
-239 -245 0
-239 -246 0
-239 -247 0
-239 -248 0
-239 -249 0
-239 -391 0
-239 -392 0
-239 -393 0
-239 -395 0
-239 -396 0
-239 -397 0
-239 -398 0
-239 -399 0
-240 -242 0
-240 -243 0
-240 -244 0
-240 -245 0
-240 -246 0
-240 -247 0
-240 -248 0
-240 -249 0
-240 -250 0
-240 -392 0
-240 -393 0
-240 -394 0
-240 -395 0
-240 -396 0
-240 -397 0
-240 -398 0
-240 -399 0
-240 -400 0
-241 -251 0
-241 -253 0
-241 -254 0
-241 -256 0
-241 -257 0
-241 -258 0
-241 -259 0
-241 -260 0
-241 -401 0
-241 -403 0
-241 -404 0
-241 -406 0
-241 -407 0
-241 -408 0
-241 -409 0
-241 -410 0
-242 -251 0
-242 -252 0
-242 -254 0
-242 -255 0
-242 -256 0
-242 -257 0
-242 -258 0
-242 -259 0
-242 -260 0
-242 -401 0
-242 -402 0
-242 -403 0
-242 -404 0
-242 -405 0
-242 -407 0
-242 -408 0
-242 -409 0
-242 -410 0
-243 -251 0
-243 -252 0
-243 -253 0
-243 -255 0
-243 -256 0
-243 -257 0
-243 -258 0
-243 -259 0
-243 -260 0
-243 -401 0
-243 -402 0
-243 -403 0
-243 -404 0
-243 -405 0
-243 -406 0
-243 -408 0
-243 -409 0
-243 -410 0
-244 -252 0
-244 -253 0
-244 -254 0
-244 -255 0
-244 -256 0
-244 -257 0
-244 -258 0
-244 -259 0
-244 -260 0
-244 -401 0
-244 -402 0
-244 -403 0
-244 -404 0
-244 -405 0
-244 -406 0
-244 -407 0
-244 -409 0
-244 -410 0
-245 -251 0
-245 -252 0
-245 -253 0
-245 -254 0
-245 -255 0
-245 -257 0
-245 -258 0
-245 -260 0
-245 -401 0
-245 -402 0
-245 -404 0
-245 -405 0
-245 -406 0
-245 -407 0
-245 -408 0
-245 -410 0
-246 -251 0
-246 -252 0
-246 -253 0
-246 -254 0
-246 -255 0
-246 -256 0
-246 -258 0
-246 -259 0
-246 -260 0
-246 -401 0
-246 -402 0
-246 -403 0
-246 -405 0
-246 -406 0
-246 -407 0
-246 -408 0
-246 -409 0
-247 -251 0
-247 -252 0
-247 -253 0
-247 -254 0
-247 -255 0
-247 -256 0
-247 -257 0
-247 -259 0
-247 -260 0
-247 -402 0
-247 -403 0
-247 -404 0
-247 -405 0
-247 -406 0
-247 -407 0
-247 -408 0
-247 -409 0
-247 -410 0
-248 -251 0
-248 -253 0
-248 -254 0
-248 -256 0
-248 -257 0
-248 -258 0
-248 -259 0
-248 -260 0
-248 -401 0
-248 -403 0
-248 -404 0
-248 -406 0
-248 -407 0
-248 -408 0
-248 -409 0
-248 -410 0
-249 -251 0
-249 -252 0
-249 -253 0
-249 -254 0
-249 -255 0
-249 -256 0
-249 -257 0
-249 -258 0
-249 -259 0
-249 -401 0
-249 -402 0
-249 -403 0
-249 -405 0
-249 -406 0
-249 -407 0
-249 -408 0
-249 -409 0
-250 -252 0
-250 -253 0
-250 -254 0
-250 -255 0
-250 -256 0
-250 -257 0
-250 -258 0
-250 -259 0
-250 -260 0
-250 -402 0
-250 -403 0
-250 -404 0
-250 -405 0
-250 -406 0
-250 -407 0
-250 -408 0
-250 -409 0
-250 -410 0
-251 -261 0
-251 -263 0
-251 -264 0
-251 -266 0
-251 -267 0
-251 -268 0
-251 -269 0
-251 -270 0
-251 -411 0
-251 -413 0
-251 -414 0
-251 -416 0
-251 -417 0
-251 -418 0
-251 -419 0
-251 -420 0
-252 -261 0
-252 -262 0
-252 -264 0
-252 -265 0
-252 -266 0
-252 -267 0
-252 -268 0
-252 -269 0
-252 -270 0
-252 -411 0
-252 -412 0
-252 -413 0
-252 -414 0
-252 -415 0
-252 -417 0
-252 -418 0
-252 -419 0
-252 -420 0
-253 -261 0
-253 -262 0
-253 -263 0
-253 -265 0
-253 -266 0
-253 -267 0
-253 -268 0
-253 -269 0
-253 -270 0
-253 -411 0
-253 -412 0
-253 -413 0
-253 -414 0
-253 -415 0
-253 -416 0
-253 -418 0
-253 -419 0
-253 -420 0
-254 -262 0
-254 -263 0
-254 -264 0
-254 -265 0
-254 -266 0
-254 -267 0
-254 -268 0
-254 -269 0
-254 -270 0
-254 -411 0
-254 -412 0
-254 -413 0
-254 -414 0
-254 -415 0
-254 -416 0
-254 -417 0
-254 -419 0
-254 -420 0
-255 -261 0
-255 -262 0
-255 -263 0
-255 -264 0
-255 -265 0
-255 -267 0
-255 -268 0
-255 -270 0
-255 -411 0
-255 -412 0
-255 -414 0
-255 -415 0
-255 -416 0
-255 -417 0
-255 -418 0
-255 -420 0
-256 -261 0
-256 -262 0
-256 -263 0
-256 -264 0
-256 -265 0
-256 -266 0
-256 -268 0
-256 -269 0
-256 -270 0
-256 -411 0
-256 -412 0
-256 -413 0
-256 -415 0
-256 -416 0
-256 -417 0
-256 -418 0
-256 -419 0
-257 -261 0
-257 -262 0
-257 -263 0
-257 -264 0
-257 -265 0
-257 -266 0
-257 -267 0
-257 -269 0
-257 -270 0
-257 -412 0
-257 -413 0
-257 -414 0
-257 -415 0
-257 -416 0
-257 -417 0
-257 -418 0
-257 -419 0
-257 -420 0
-258 -261 0
-258 -263 0
-258 -264 0
-258 -266 0
-258 -267 0
-258 -268 0
-258 -269 0
-258 -270 0
-258 -411 0
-258 -413 0
-258 -414 0
-258 -416 0
-258 -417 0
-258 -418 0
-258 -419 0
-258 -420 0
-259 -261 0
-259 -262 0
-259 -263 0
-259 -264 0
-259 -265 0
-259 -266 0
-259 -267 0
-259 -268 0
-259 -269 0
-259 -411 0
-259 -412 0
-259 -413 0
-259 -415 0
-259 -416 0
-259 -417 0
-259 -418 0
-259 -419 0
-260 -262 0
-260 -263 0
-260 -264 0
-260 -265 0
-260 -266 0
-260 -267 0
-260 -268 0
-260 -269 0
-260 -270 0
-260 -412 0
-260 -413 0
-260 -414 0
-260 -415 0
-260 -416 0
-260 -417 0
-260 -418 0
-260 -419 0
-260 -420 0
-261 -271 0
-261 -273 0
-261 -274 0
-261 -276 0
-261 -277 0
-261 -278 0
-261 -279 0
-261 -280 0
-261 -421 0
-261 -423 0
-261 -424 0
-261 -426 0
-261 -427 0
-261 -428 0
-261 -429 0
-261 -430 0
-262 -271 0
-262 -272 0
-262 -274 0
-262 -275 0
-262 -276 0
-262 -277 0
-262 -278 0
-262 -279 0
-262 -280 0
-262 -421 0
-262 -422 0
-262 -423 0
-262 -424 0
-262 -425 0
-262 -427 0
-262 -428 0
-262 -429 0
-262 -430 0
-263 -271 0
-263 -272 0
-263 -273 0
-263 -275 0
-263 -276 0
-263 -277 0
-263 -278 0
-263 -279 0
-263 -280 0
-263 -421 0
-263 -422 0
-263 -423 0
-263 -424 0
-263 -425 0
-263 -426 0
-263 -428 0
-263 -429 0
-263 -430 0
-264 -272 0
-264 -273 0
-264 -274 0
-264 -275 0
-264 -276 0
-264 -277 0
-264 -278 0
-264 -279 0
-264 -280 0
-264 -421 0
-264 -422 0
-264 -423 0
-264 -424 0
-264 -425 0
-264 -426 0
-264 -427 0
-264 -429 0
-264 -430 0
-265 -271 0
-265 -272 0
-265 -273 0
-265 -274 0
-265 -275 0
-265 -277 0
-265 -278 0
-265 -280 0
-265 -421 0
-265 -422 0
-265 -424 0
-265 -425 0
-265 -426 0
-265 -427 0
-265 -428 0
-265 -430 0
-266 -271 0
-266 -272 0
-266 -273 0
-266 -274 0
-266 -275 0
-266 -276 0
-266 -278 0
-266 -279 0
-266 -280 0
-266 -421 0
-266 -422 0
-266 -423 0
-266 -425 0
-266 -426 0
-266 -427 0
-266 -428 0
-266 -429 0
-267 -271 0
-267 -272 0
-267 -273 0
-267 -274 0
-267 -275 0
-267 -276 0
-267 -277 0
-267 -279 0
-267 -280 0
-267 -422 0
-267 -423 0
-267 -424 0
-267 -425 0
-267 -426 0
-267 -427 0
-267 -428 0
-267 -429 0
-267 -430 0
-268 -271 0
-268 -273 0
-268 -274 0
-268 -276 0
-268 -277 0
-268 -278 0
-268 -279 0
-268 -280 0
-268 -421 0
-268 -423 0
-268 -424 0
-268 -426 0
-268 -427 0
-268 -428 0
-268 -429 0
-268 -430 0
-269 -271 0
-269 -272 0
-269 -273 0
-269 -274 0
-269 -275 0
-269 -276 0
-269 -277 0
-269 -278 0
-269 -279 0
-269 -421 0
-269 -422 0
-269 -423 0
-269 -425 0
-269 -426 0
-269 -427 0
-269 -428 0
-269 -429 0
-270 -272 0
-270 -273 0
-270 -274 0
-270 -275 0
-270 -276 0
-270 -277 0
-270 -278 0
-270 -279 0
-270 -280 0
-270 -422 0
-270 -423 0
-270 -424 0
-270 -425 0
-270 -426 0
-270 -427 0
-270 -428 0
-270 -429 0
-270 -430 0
-271 -281 0
-271 -283 0
-271 -284 0
-271 -286 0
-271 -287 0
-271 -288 0
-271 -289 0
-271 -290 0
-271 -431 0
-271 -433 0
-271 -434 0
-271 -436 0
-271 -437 0
-271 -438 0
-271 -439 0
-271 -440 0
-272 -281 0
-272 -282 0
-272 -284 0
-272 -285 0
-272 -286 0
-272 -287 0
-272 -288 0
-272 -289 0
-272 -290 0
-272 -431 0
-272 -432 0
-272 -433 0
-272 -434 0
-272 -435 0
-272 -437 0
-272 -438 0
-272 -439 0
-272 -440 0
-273 -281 0
-273 -282 0
-273 -283 0
-273 -285 0
-273 -286 0
-273 -287 0
-273 -288 0
-273 -289 0
-273 -290 0
-273 -431 0
-273 -432 0
-273 -433 0
-273 -434 0
-273 -435 0
-273 -436 0
-273 -438 0
-273 -439 0
-273 -440 0
-274 -282 0
-274 -283 0
-274 -284 0
-274 -285 0
-274 -286 0
-274 -287 0
-274 -288 0
-274 -289 0
-274 -290 0
-274 -431 0
-274 -432 0
-274 -433 0
-274 -434 0
-274 -435 0
-274 -436 0
-274 -437 0
-274 -439 0
-274 -440 0
-275 -281 0
-275 -282 0
-275 -283 0
-275 -284 0
-275 -285 0
-275 -287 0
-275 -288 0
-275 -290 0
-275 -431 0
-275 -432 0
-275 -434 0
-275 -435 0
-275 -436 0
-275 -437 0
-275 -438 0
-275 -440 0
-276 -281 0
-276 -282 0
-276 -283 0
-276 -284 0
-276 -285 0
-276 -286 0
-276 -288 0
-276 -289 0
-276 -290 0
-276 -431 0
-276 -432 0
-276 -433 0
-276 -435 0
-276 -436 0
-276 -437 0
-276 -438 0
-276 -439 0
-277 -281 0
-277 -282 0
-277 -283 0
-277 -284 0
-277 -285 0
-277 -286 0
-277 -287 0
-277 -289 0
-277 -290 0
-277 -432 0
-277 -433 0
-277 -434 0
-277 -435 0
-277 -436 0
-277 -437 0
-277 -438 0
-277 -439 0
-277 -440 0
-278 -281 0
-278 -283 0
-278 -284 0
-278 -286 0
-278 -287 0
-278 -288 0
-278 -289 0
-278 -290 0
-278 -431 0
-278 -433 0
-278 -434 0
-278 -436 0
-278 -437 0
-278 -438 0
-278 -439 0
-278 -440 0
-279 -281 0
-279 -282 0
-279 -283 0
-279 -284 0
-279 -285 0
-279 -286 0
-279 -287 0
-279 -288 0
-279 -289 0
-279 -431 0
-279 -432 0
-279 -433 0
-279 -435 0
-279 -436 0
-279 -437 0
-279 -438 0
-279 -439 0
-280 -282 0
-280 -283 0
-280 -284 0
-280 -285 0
-280 -286 0
-280 -287 0
-280 -288 0
-280 -289 0
-280 -290 0
-280 -432 0
-280 -433 0
-280 -434 0
-280 -435 0
-280 -436 0
-280 -437 0
-280 -438 0
-280 -439 0
-280 -440 0
-281 -291 0
-281 -293 0
-281 -294 0
-281 -296 0
-281 -297 0
-281 -298 0
-281 -299 0
-281 -300 0
-281 -441 0
-281 -443 0
-281 -444 0
-281 -446 0
-281 -447 0
-281 -448 0
-281 -449 0
-281 -450 0
-282 -291 0
-282 -292 0
-282 -294 0
-282 -295 0
-282 -296 0
-282 -297 0
-282 -298 0
-282 -299 0
-282 -300 0
-282 -441 0
-282 -442 0
-282 -443 0
-282 -444 0
-282 -445 0
-282 -447 0
-282 -448 0
-282 -449 0
-282 -450 0
-283 -291 0
-283 -292 0
-283 -293 0
-283 -295 0
-283 -296 0
-283 -297 0
-283 -298 0
-283 -299 0
-283 -300 0
-283 -441 0
-283 -442 0
-283 -443 0
-283 -444 0
-283 -445 0
-283 -446 0
-283 -448 0
-283 -449 0
-283 -450 0
-284 -292 0
-284 -293 0
-284 -294 0
-284 -295 0
-284 -296 0
-284 -297 0
-284 -298 0
-284 -299 0
-284 -300 0
-284 -441 0
-284 -442 0
-284 -443 0
-284 -444 0
-284 -445 0
-284 -446 0
-284 -447 0
-284 -449 0
-284 -450 0
-285 -291 0
-285 -292 0
-285 -293 0
-285 -294 0
-285 -295 0
-285 -297 0
-285 -298 0
-285 -300 0
-285 -441 0
-285 -442 0
-285 -444 0
-285 -445 0
-285 -446 0
-285 -447 0
-285 -448 0
-285 -450 0
-286 -291 0
-286 -292 0
-286 -293 0
-286 -294 0
-286 -295 0
-286 -296 0
-286 -298 0
-286 -299 0
-286 -300 0
-286 -441 0
-286 -442 0
-286 -443 0
-286 -445 0
-286 -446 0
-286 -447 0
-286 -448 0
-286 -449 0
-287 -291 0
-287 -292 0
-287 -293 0
-287 -294 0
-287 -295 0
-287 -296 0
-287 -297 0
-287 -299 0
-287 -300 0
-287 -442 0
-287 -443 0
-287 -444 0
-287 -445 0
-287 -446 0
-287 -447 0
-287 -448 0
-287 -449 0
-287 -450 0
-288 -291 0
-288 -293 0
-288 -294 0
-288 -296 0
-288 -297 0
-288 -298 0
-288 -299 0
-288 -300 0
-288 -441 0
-288 -443 0
-288 -444 0
-288 -446 0
-288 -447 0
-288 -448 0
-288 -449 0
-288 -450 0
-289 -291 0
-289 -292 0
-289 -293 0
-289 -294 0
-289 -295 0
-289 -296 0
-289 -297 0
-289 -298 0
-289 -299 0
-289 -441 0
-289 -442 0
-289 -443 0
-289 -445 0
-289 -446 0
-289 -447 0
-289 -448 0
-289 -449 0
-290 -292 0
-290 -293 0
-290 -294 0
-290 -295 0
-290 -296 0
-290 -297 0
-290 -298 0
-290 -299 0
-290 -300 0
-290 -442 0
-290 -443 0
-290 -444 0
-290 -445 0
-290 -446 0
-290 -447 0
-290 -448 0
-290 -449 0
-290 -450 0
-291 -301 0
-291 -303 0
-291 -304 0
-291 -306 0
-291 -307 0
-291 -308 0
-291 -309 0
-291 -310 0
-291 -451 0
-291 -453 0
-291 -454 0
-291 -456 0
-291 -457 0
-291 -458 0
-291 -459 0
-291 -460 0
-292 -301 0
-292 -302 0
-292 -304 0
-292 -305 0
-292 -306 0
-292 -307 0
-292 -308 0
-292 -309 0
-292 -310 0
-292 -451 0
-292 -452 0
-292 -453 0
-292 -454 0
-292 -455 0
-292 -457 0
-292 -458 0
-292 -459 0
-292 -460 0
-293 -301 0
-293 -302 0
-293 -303 0
-293 -305 0
-293 -306 0
-293 -307 0
-293 -308 0
-293 -309 0
-293 -310 0
-293 -451 0
-293 -452 0
-293 -453 0
-293 -454 0
-293 -455 0
-293 -456 0
-293 -458 0
-293 -459 0
-293 -460 0
-294 -302 0
-294 -303 0
-294 -304 0
-294 -305 0
-294 -306 0
-294 -307 0
-294 -308 0
-294 -309 0
-294 -310 0
-294 -451 0
-294 -452 0
-294 -453 0
-294 -454 0
-294 -455 0
-294 -456 0
-294 -457 0
-294 -459 0
-294 -460 0
-295 -301 0
-295 -302 0
-295 -303 0
-295 -304 0
-295 -305 0
-295 -307 0
-295 -308 0
-295 -310 0
-295 -451 0
-295 -452 0
-295 -454 0
-295 -455 0
-295 -456 0
-295 -457 0
-295 -458 0
-295 -460 0
-296 -301 0
-296 -302 0
-296 -303 0
-296 -304 0
-296 -305 0
-296 -306 0
-296 -308 0
-296 -309 0
-296 -310 0
-296 -451 0
-296 -452 0
-296 -453 0
-296 -455 0
-296 -456 0
-296 -457 0
-296 -458 0
-296 -459 0
-297 -301 0
-297 -302 0
-297 -303 0
-297 -304 0
-297 -305 0
-297 -306 0
-297 -307 0
-297 -309 0
-297 -310 0
-297 -452 0
-297 -453 0
-297 -454 0
-297 -455 0
-297 -456 0
-297 -457 0
-297 -458 0
-297 -459 0
-297 -460 0
-298 -301 0
-298 -303 0
-298 -304 0
-298 -306 0
-298 -307 0
-298 -308 0
-298 -309 0
-298 -310 0
-298 -451 0
-298 -453 0
-298 -454 0
-298 -456 0
-298 -457 0
-298 -458 0
-298 -459 0
-298 -460 0
-299 -301 0
-299 -302 0
-299 -303 0
-299 -304 0
-299 -305 0
-299 -306 0
-299 -307 0
-299 -308 0
-299 -309 0
-299 -451 0
-299 -452 0
-299 -453 0
-299 -455 0
-299 -456 0
-299 -457 0
-299 -458 0
-299 -459 0
-300 -302 0
-300 -303 0
-300 -304 0
-300 -305 0
-300 -306 0
-300 -307 0
-300 -308 0
-300 -309 0
-300 -310 0
-300 -452 0
-300 -453 0
-300 -454 0
-300 -455 0
-300 -456 0
-300 -457 0
-300 -458 0
-300 -459 0
-300 -460 0
-301 -311 0
-301 -313 0
-301 -314 0
-301 -316 0
-301 -317 0
-301 -318 0
-301 -319 0
-301 -320 0
-301 -461 0
-301 -463 0
-301 -464 0
-301 -466 0
-301 -467 0
-301 -468 0
-301 -469 0
-301 -470 0
-302 -311 0
-302 -312 0
-302 -314 0
-302 -315 0
-302 -316 0
-302 -317 0
-302 -318 0
-302 -319 0
-302 -320 0
-302 -461 0
-302 -462 0
-302 -463 0
-302 -464 0
-302 -465 0
-302 -467 0
-302 -468 0
-302 -469 0
-302 -470 0
-303 -311 0
-303 -312 0
-303 -313 0
-303 -315 0
-303 -316 0
-303 -317 0
-303 -318 0
-303 -319 0
-303 -320 0
-303 -461 0
-303 -462 0
-303 -463 0
-303 -464 0
-303 -465 0
-303 -466 0
-303 -468 0
-303 -469 0
-303 -470 0
-304 -312 0
-304 -313 0
-304 -314 0
-304 -315 0
-304 -316 0
-304 -317 0
-304 -318 0
-304 -319 0
-304 -320 0
-304 -461 0
-304 -462 0
-304 -463 0
-304 -464 0
-304 -465 0
-304 -466 0
-304 -467 0
-304 -469 0
-304 -470 0
-305 -311 0
-305 -312 0
-305 -313 0
-305 -314 0
-305 -315 0
-305 -317 0
-305 -318 0
-305 -320 0
-305 -461 0
-305 -462 0
-305 -464 0
-305 -465 0
-305 -466 0
-305 -467 0
-305 -468 0
-305 -470 0
-306 -311 0
-306 -312 0
-306 -313 0
-306 -314 0
-306 -315 0
-306 -316 0
-306 -318 0
-306 -319 0
-306 -320 0
-306 -461 0
-306 -462 0
-306 -463 0
-306 -465 0
-306 -466 0
-306 -467 0
-306 -468 0
-306 -469 0
-307 -311 0
-307 -312 0
-307 -313 0
-307 -314 0
-307 -315 0
-307 -316 0
-307 -317 0
-307 -319 0
-307 -320 0
-307 -462 0
-307 -463 0
-307 -464 0
-307 -465 0
-307 -466 0
-307 -467 0
-307 -468 0
-307 -469 0
-307 -470 0
-308 -311 0
-308 -313 0
-308 -314 0
-308 -316 0
-308 -317 0
-308 -318 0
-308 -319 0
-308 -320 0
-308 -461 0
-308 -463 0
-308 -464 0
-308 -466 0
-308 -467 0
-308 -468 0
-308 -469 0
-308 -470 0
-309 -311 0
-309 -312 0
-309 -313 0
-309 -314 0
-309 -315 0
-309 -316 0
-309 -317 0
-309 -318 0
-309 -319 0
-309 -461 0
-309 -462 0
-309 -463 0
-309 -465 0
-309 -466 0
-309 -467 0
-309 -468 0
-309 -469 0
-310 -312 0
-310 -313 0
-310 -314 0
-310 -315 0
-310 -316 0
-310 -317 0
-310 -318 0
-310 -319 0
-310 -320 0
-310 -462 0
-310 -463 0
-310 -464 0
-310 -465 0
-310 -466 0
-310 -467 0
-310 -468 0
-310 -469 0
-310 -470 0
-311 -471 0
-311 -473 0
-311 -474 0
-311 -476 0
-311 -477 0
-311 -478 0
-311 -479 0
-311 -480 0
-312 -471 0
-312 -472 0
-312 -473 0
-312 -474 0
-312 -475 0
-312 -477 0
-312 -478 0
-312 -479 0
-312 -480 0
-313 -471 0
-313 -472 0
-313 -473 0
-313 -474 0
-313 -475 0
-313 -476 0
-313 -478 0
-313 -479 0
-313 -480 0
-314 -471 0
-314 -472 0
-314 -473 0
-314 -474 0
-314 -475 0
-314 -476 0
-314 -477 0
-314 -479 0
-314 -480 0
-315 -471 0
-315 -472 0
-315 -474 0
-315 -475 0
-315 -476 0
-315 -477 0
-315 -478 0
-315 -480 0
-316 -471 0
-316 -472 0
-316 -473 0
-316 -475 0
-316 -476 0
-316 -477 0
-316 -478 0
-316 -479 0
-317 -472 0
-317 -473 0
-317 -474 0
-317 -475 0
-317 -476 0
-317 -477 0
-317 -478 0
-317 -479 0
-317 -480 0
-318 -471 0
-318 -473 0
-318 -474 0
-318 -476 0
-318 -477 0
-318 -478 0
-318 -479 0
-318 -480 0
-319 -471 0
-319 -472 0
-319 -473 0
-319 -475 0
-319 -476 0
-319 -477 0
-319 -478 0
-319 -479 0
-320 -472 0
-320 -473 0
-320 -474 0
-320 -475 0
-320 -476 0
-320 -477 0
-320 -478 0
-320 -479 0
-320 -480 0
-321 -331 0
-321 -333 0
-321 -334 0
-321 -336 0
-321 -337 0
-321 -338 0
-321 -339 0
-321 -340 0
-321 -481 0
-321 -483 0
-321 -484 0
-321 -486 0
-321 -487 0
-321 -488 0
-321 -489 0
-321 -490 0
-322 -331 0
-322 -332 0
-322 -334 0
-322 -335 0
-322 -336 0
-322 -337 0
-322 -338 0
-322 -339 0
-322 -340 0
-322 -481 0
-322 -482 0
-322 -483 0
-322 -484 0
-322 -485 0
-322 -487 0
-322 -488 0
-322 -489 0
-322 -490 0
-323 -331 0
-323 -332 0
-323 -333 0
-323 -335 0
-323 -336 0
-323 -337 0
-323 -338 0
-323 -339 0
-323 -340 0
-323 -481 0
-323 -482 0
-323 -483 0
-323 -484 0
-323 -485 0
-323 -486 0
-323 -488 0
-323 -489 0
-323 -490 0
-324 -332 0
-324 -333 0
-324 -334 0
-324 -335 0
-324 -336 0
-324 -337 0
-324 -338 0
-324 -339 0
-324 -340 0
-324 -481 0
-324 -482 0
-324 -483 0
-324 -484 0
-324 -485 0
-324 -486 0
-324 -487 0
-324 -489 0
-324 -490 0
-325 -331 0
-325 -332 0
-325 -333 0
-325 -334 0
-325 -335 0
-325 -337 0
-325 -338 0
-325 -340 0
-325 -481 0
-325 -482 0
-325 -484 0
-325 -485 0
-325 -486 0
-325 -487 0
-325 -488 0
-325 -490 0
-326 -331 0
-326 -332 0
-326 -333 0
-326 -334 0
-326 -335 0
-326 -336 0
-326 -338 0
-326 -339 0
-326 -340 0
-326 -481 0
-326 -482 0
-326 -483 0
-326 -485 0
-326 -486 0
-326 -487 0
-326 -488 0
-326 -489 0
-327 -331 0
-327 -332 0
-327 -333 0
-327 -334 0
-327 -335 0
-327 -336 0
-327 -337 0
-327 -339 0
-327 -340 0
-327 -482 0
-327 -483 0
-327 -484 0
-327 -485 0
-327 -486 0
-327 -487 0
-327 -488 0
-327 -489 0
-327 -490 0
-328 -331 0
-328 -333 0
-328 -334 0
-328 -336 0
-328 -337 0
-328 -338 0
-328 -339 0
-328 -340 0
-328 -481 0
-328 -483 0
-328 -484 0
-328 -486 0
-328 -487 0
-328 -488 0
-328 -489 0
-328 -490 0
-329 -331 0
-329 -332 0
-329 -333 0
-329 -334 0
-329 -335 0
-329 -336 0
-329 -337 0
-329 -338 0
-329 -339 0
-329 -481 0
-329 -482 0
-329 -483 0
-329 -485 0
-329 -486 0
-329 -487 0
-329 -488 0
-329 -489 0
-330 -332 0
-330 -333 0
-330 -334 0
-330 -335 0
-330 -336 0
-330 -337 0
-330 -338 0
-330 -339 0
-330 -340 0
-330 -482 0
-330 -483 0
-330 -484 0
-330 -485 0
-330 -486 0
-330 -487 0
-330 -488 0
-330 -489 0
-330 -490 0
-331 -341 0
-331 -343 0
-331 -344 0
-331 -346 0
-331 -347 0
-331 -348 0
-331 -349 0
-331 -350 0
-331 -491 0
-331 -493 0
-331 -494 0
-331 -496 0
-331 -497 0
-331 -498 0
-331 -499 0
-331 -500 0
-332 -341 0
-332 -342 0
-332 -344 0
-332 -345 0
-332 -346 0
-332 -347 0
-332 -348 0
-332 -349 0
-332 -350 0
-332 -491 0
-332 -492 0
-332 -493 0
-332 -494 0
-332 -495 0
-332 -497 0
-332 -498 0
-332 -499 0
-332 -500 0
-333 -341 0
-333 -342 0
-333 -343 0
-333 -345 0
-333 -346 0
-333 -347 0
-333 -348 0
-333 -349 0
-333 -350 0
-333 -491 0
-333 -492 0
-333 -493 0
-333 -494 0
-333 -495 0
-333 -496 0
-333 -498 0
-333 -499 0
-333 -500 0
-334 -342 0
-334 -343 0
-334 -344 0
-334 -345 0
-334 -346 0
-334 -347 0
-334 -348 0
-334 -349 0
-334 -350 0
-334 -491 0
-334 -492 0
-334 -493 0
-334 -494 0
-334 -495 0
-334 -496 0
-334 -497 0
-334 -499 0
-334 -500 0
-335 -341 0
-335 -342 0
-335 -343 0
-335 -344 0
-335 -345 0
-335 -347 0
-335 -348 0
-335 -350 0
-335 -491 0
-335 -492 0
-335 -494 0
-335 -495 0
-335 -496 0
-335 -497 0
-335 -498 0
-335 -500 0
-336 -341 0
-336 -342 0
-336 -343 0
-336 -344 0
-336 -345 0
-336 -346 0
-336 -348 0
-336 -349 0
-336 -350 0
-336 -491 0
-336 -492 0
-336 -493 0
-336 -495 0
-336 -496 0
-336 -497 0
-336 -498 0
-336 -499 0
-337 -341 0
-337 -342 0
-337 -343 0
-337 -344 0
-337 -345 0
-337 -346 0
-337 -347 0
-337 -349 0
-337 -350 0
-337 -492 0
-337 -493 0
-337 -494 0
-337 -495 0
-337 -496 0
-337 -497 0
-337 -498 0
-337 -499 0
-337 -500 0
-338 -341 0
-338 -343 0
-338 -344 0
-338 -346 0
-338 -347 0
-338 -348 0
-338 -349 0
-338 -350 0
-338 -491 0
-338 -493 0
-338 -494 0
-338 -496 0
-338 -497 0
-338 -498 0
-338 -499 0
-338 -500 0
-339 -341 0
-339 -342 0
-339 -343 0
-339 -344 0
-339 -345 0
-339 -346 0
-339 -347 0
-339 -348 0
-339 -349 0
-339 -491 0
-339 -492 0
-339 -493 0
-339 -495 0
-339 -496 0
-339 -497 0
-339 -498 0
-339 -499 0
-340 -342 0
-340 -343 0
-340 -344 0
-340 -345 0
-340 -346 0
-340 -347 0
-340 -348 0
-340 -349 0
-340 -350 0
-340 -492 0
-340 -493 0
-340 -494 0
-340 -495 0
-340 -496 0
-340 -497 0
-340 -498 0
-340 -499 0
-340 -500 0
-341 -351 0
-341 -353 0
-341 -354 0
-341 -356 0
-341 -357 0
-341 -358 0
-341 -359 0
-341 -360 0
-341 -501 0
-341 -503 0
-341 -504 0
-341 -506 0
-341 -507 0
-341 -508 0
-341 -509 0
-341 -510 0
-342 -351 0
-342 -352 0
-342 -354 0
-342 -355 0
-342 -356 0
-342 -357 0
-342 -358 0
-342 -359 0
-342 -360 0
-342 -501 0
-342 -502 0
-342 -503 0
-342 -504 0
-342 -505 0
-342 -507 0
-342 -508 0
-342 -509 0
-342 -510 0
-343 -351 0
-343 -352 0
-343 -353 0
-343 -355 0
-343 -356 0
-343 -357 0
-343 -358 0
-343 -359 0
-343 -360 0
-343 -501 0
-343 -502 0
-343 -503 0
-343 -504 0
-343 -505 0
-343 -506 0
-343 -508 0
-343 -509 0
-343 -510 0
-344 -352 0
-344 -353 0
-344 -354 0
-344 -355 0
-344 -356 0
-344 -357 0
-344 -358 0
-344 -359 0
-344 -360 0
-344 -501 0
-344 -502 0
-344 -503 0
-344 -504 0
-344 -505 0
-344 -506 0
-344 -507 0
-344 -509 0
-344 -510 0
-345 -351 0
-345 -352 0
-345 -353 0
-345 -354 0
-345 -355 0
-345 -357 0
-345 -358 0
-345 -360 0
-345 -501 0
-345 -502 0
-345 -504 0
-345 -505 0
-345 -506 0
-345 -507 0
-345 -508 0
-345 -510 0
-346 -351 0
-346 -352 0
-346 -353 0
-346 -354 0
-346 -355 0
-346 -356 0
-346 -358 0
-346 -359 0
-346 -360 0
-346 -501 0
-346 -502 0
-346 -503 0
-346 -505 0
-346 -506 0
-346 -507 0
-346 -508 0
-346 -509 0
-347 -351 0
-347 -352 0
-347 -353 0
-347 -354 0
-347 -355 0
-347 -356 0
-347 -357 0
-347 -359 0
-347 -360 0
-347 -502 0
-347 -503 0
-347 -504 0
-347 -505 0
-347 -506 0
-347 -507 0
-347 -508 0
-347 -509 0
-347 -510 0
-348 -351 0
-348 -353 0
-348 -354 0
-348 -356 0
-348 -357 0
-348 -358 0
-348 -359 0
-348 -360 0
-348 -501 0
-348 -503 0
-348 -504 0
-348 -506 0
-348 -507 0
-348 -508 0
-348 -509 0
-348 -510 0
-349 -351 0
-349 -352 0
-349 -353 0
-349 -354 0
-349 -355 0
-349 -356 0
-349 -357 0
-349 -358 0
-349 -359 0
-349 -501 0
-349 -502 0
-349 -503 0
-349 -505 0
-349 -506 0
-349 -507 0
-349 -508 0
-349 -509 0
-350 -352 0
-350 -353 0
-350 -354 0
-350 -355 0
-350 -356 0
-350 -357 0
-350 -358 0
-350 -359 0
-350 -360 0
-350 -502 0
-350 -503 0
-350 -504 0
-350 -505 0
-350 -506 0
-350 -507 0
-350 -508 0
-350 -509 0
-350 -510 0
-351 -361 0
-351 -363 0
-351 -364 0
-351 -366 0
-351 -367 0
-351 -368 0
-351 -369 0
-351 -370 0
-351 -511 0
-351 -513 0
-351 -514 0
-351 -516 0
-351 -517 0
-351 -518 0
-351 -519 0
-351 -520 0
-352 -361 0
-352 -362 0
-352 -364 0
-352 -365 0
-352 -366 0
-352 -367 0
-352 -368 0
-352 -369 0
-352 -370 0
-352 -511 0
-352 -512 0
-352 -513 0
-352 -514 0
-352 -515 0
-352 -517 0
-352 -518 0
-352 -519 0
-352 -520 0
-353 -361 0
-353 -362 0
-353 -363 0
-353 -365 0
-353 -366 0
-353 -367 0
-353 -368 0
-353 -369 0
-353 -370 0
-353 -511 0
-353 -512 0
-353 -513 0
-353 -514 0
-353 -515 0
-353 -516 0
-353 -518 0
-353 -519 0
-353 -520 0
-354 -362 0
-354 -363 0
-354 -364 0
-354 -365 0
-354 -366 0
-354 -367 0
-354 -368 0
-354 -369 0
-354 -370 0
-354 -511 0
-354 -512 0
-354 -513 0
-354 -514 0
-354 -515 0
-354 -516 0
-354 -517 0
-354 -519 0
-354 -520 0
-355 -361 0
-355 -362 0
-355 -363 0
-355 -364 0
-355 -365 0
-355 -367 0
-355 -368 0
-355 -370 0
-355 -511 0
-355 -512 0
-355 -514 0
-355 -515 0
-355 -516 0
-355 -517 0
-355 -518 0
-355 -520 0
-356 -361 0
-356 -362 0
-356 -363 0
-356 -364 0
-356 -365 0
-356 -366 0
-356 -368 0
-356 -369 0
-356 -370 0
-356 -511 0
-356 -512 0
-356 -513 0
-356 -515 0
-356 -516 0
-356 -517 0
-356 -518 0
-356 -519 0
-357 -361 0
-357 -362 0
-357 -363 0
-357 -364 0
-357 -365 0
-357 -366 0
-357 -367 0
-357 -369 0
-357 -370 0
-357 -512 0
-357 -513 0
-357 -514 0
-357 -515 0
-357 -516 0
-357 -517 0
-357 -518 0
-357 -519 0
-357 -520 0
-358 -361 0
-358 -363 0
-358 -364 0
-358 -366 0
-358 -367 0
-358 -368 0
-358 -369 0
-358 -370 0
-358 -511 0
-358 -513 0
-358 -514 0
-358 -516 0
-358 -517 0
-358 -518 0
-358 -519 0
-358 -520 0
-359 -361 0
-359 -362 0
-359 -363 0
-359 -364 0
-359 -365 0
-359 -366 0
-359 -367 0
-359 -368 0
-359 -369 0
-359 -511 0
-359 -512 0
-359 -513 0
-359 -515 0
-359 -516 0
-359 -517 0
-359 -518 0
-359 -519 0
-360 -362 0
-360 -363 0
-360 -364 0
-360 -365 0
-360 -366 0
-360 -367 0
-360 -368 0
-360 -369 0
-360 -370 0
-360 -512 0
-360 -513 0
-360 -514 0
-360 -515 0
-360 -516 0
-360 -517 0
-360 -518 0
-360 -519 0
-360 -520 0
-361 -371 0
-361 -373 0
-361 -374 0
-361 -376 0
-361 -377 0
-361 -378 0
-361 -379 0
-361 -380 0
-361 -521 0
-361 -523 0
-361 -524 0
-361 -526 0
-361 -527 0
-361 -528 0
-361 -529 0
-361 -530 0
-362 -371 0
-362 -372 0
-362 -374 0
-362 -375 0
-362 -376 0
-362 -377 0
-362 -378 0
-362 -379 0
-362 -380 0
-362 -521 0
-362 -522 0
-362 -523 0
-362 -524 0
-362 -525 0
-362 -527 0
-362 -528 0
-362 -529 0
-362 -530 0
-363 -371 0
-363 -372 0
-363 -373 0
-363 -375 0
-363 -376 0
-363 -377 0
-363 -378 0
-363 -379 0
-363 -380 0
-363 -521 0
-363 -522 0
-363 -523 0
-363 -524 0
-363 -525 0
-363 -526 0
-363 -528 0
-363 -529 0
-363 -530 0
-364 -372 0
-364 -373 0
-364 -374 0
-364 -375 0
-364 -376 0
-364 -377 0
-364 -378 0
-364 -379 0
-364 -380 0
-364 -521 0
-364 -522 0
-364 -523 0
-364 -524 0
-364 -525 0
-364 -526 0
-364 -527 0
-364 -529 0
-364 -530 0
-365 -371 0
-365 -372 0
-365 -373 0
-365 -374 0
-365 -375 0
-365 -377 0
-365 -378 0
-365 -380 0
-365 -521 0
-365 -522 0
-365 -524 0
-365 -525 0
-365 -526 0
-365 -527 0
-365 -528 0
-365 -530 0
-366 -371 0
-366 -372 0
-366 -373 0
-366 -374 0
-366 -375 0
-366 -376 0
-366 -378 0
-366 -379 0
-366 -380 0
-366 -521 0
-366 -522 0
-366 -523 0
-366 -525 0
-366 -526 0
-366 -527 0
-366 -528 0
-366 -529 0
-367 -371 0
-367 -372 0
-367 -373 0
-367 -374 0
-367 -375 0
-367 -376 0
-367 -377 0
-367 -379 0
-367 -380 0
-367 -522 0
-367 -523 0
-367 -524 0
-367 -525 0
-367 -526 0
-367 -527 0
-367 -528 0
-367 -529 0
-367 -530 0
-368 -371 0
-368 -373 0
-368 -374 0
-368 -376 0
-368 -377 0
-368 -378 0
-368 -379 0
-368 -380 0
-368 -521 0
-368 -523 0
-368 -524 0
-368 -526 0
-368 -527 0
-368 -528 0
-368 -529 0
-368 -530 0
-369 -371 0
-369 -372 0
-369 -373 0
-369 -374 0
-369 -375 0
-369 -376 0
-369 -377 0
-369 -378 0
-369 -379 0
-369 -521 0
-369 -522 0
-369 -523 0
-369 -525 0
-369 -526 0
-369 -527 0
-369 -528 0
-369 -529 0
-370 -372 0
-370 -373 0
-370 -374 0
-370 -375 0
-370 -376 0
-370 -377 0
-370 -378 0
-370 -379 0
-370 -380 0
-370 -522 0
-370 -523 0
-370 -524 0
-370 -525 0
-370 -526 0
-370 -527 0
-370 -528 0
-370 -529 0
-370 -530 0
-371 -381 0
-371 -383 0
-371 -384 0
-371 -386 0
-371 -387 0
-371 -388 0
-371 -389 0
-371 -390 0
-371 -531 0
-371 -533 0
-371 -534 0
-371 -536 0
-371 -537 0
-371 -538 0
-371 -539 0
-371 -540 0
-372 -381 0
-372 -382 0
-372 -384 0
-372 -385 0
-372 -386 0
-372 -387 0
-372 -388 0
-372 -389 0
-372 -390 0
-372 -531 0
-372 -532 0
-372 -533 0
-372 -534 0
-372 -535 0
-372 -537 0
-372 -538 0
-372 -539 0
-372 -540 0
-373 -381 0
-373 -382 0
-373 -383 0
-373 -385 0
-373 -386 0
-373 -387 0
-373 -388 0
-373 -389 0
-373 -390 0
-373 -531 0
-373 -532 0
-373 -533 0
-373 -534 0
-373 -535 0
-373 -536 0
-373 -538 0
-373 -539 0
-373 -540 0
-374 -382 0
-374 -383 0
-374 -384 0
-374 -385 0
-374 -386 0
-374 -387 0
-374 -388 0
-374 -389 0
-374 -390 0
-374 -531 0
-374 -532 0
-374 -533 0
-374 -534 0
-374 -535 0
-374 -536 0
-374 -537 0
-374 -539 0
-374 -540 0
-375 -381 0
-375 -382 0
-375 -383 0
-375 -384 0
-375 -385 0
-375 -387 0
-375 -388 0
-375 -390 0
-375 -531 0
-375 -532 0
-375 -534 0
-375 -535 0
-375 -536 0
-375 -537 0
-375 -538 0
-375 -540 0
-376 -381 0
-376 -382 0
-376 -383 0
-376 -384 0
-376 -385 0
-376 -386 0
-376 -388 0
-376 -389 0
-376 -390 0
-376 -531 0
-376 -532 0
-376 -533 0
-376 -535 0
-376 -536 0
-376 -537 0
-376 -538 0
-376 -539 0
-377 -381 0
-377 -382 0
-377 -383 0
-377 -384 0
-377 -385 0
-377 -386 0
-377 -387 0
-377 -389 0
-377 -390 0
-377 -532 0
-377 -533 0
-377 -534 0
-377 -535 0
-377 -536 0
-377 -537 0
-377 -538 0
-377 -539 0
-377 -540 0
-378 -381 0
-378 -383 0
-378 -384 0
-378 -386 0
-378 -387 0
-378 -388 0
-378 -389 0
-378 -390 0
-378 -531 0
-378 -533 0
-378 -534 0
-378 -536 0
-378 -537 0
-378 -538 0
-378 -539 0
-378 -540 0
-379 -381 0
-379 -382 0
-379 -383 0
-379 -384 0
-379 -385 0
-379 -386 0
-379 -387 0
-379 -388 0
-379 -389 0
-379 -531 0
-379 -532 0
-379 -533 0
-379 -535 0
-379 -536 0
-379 -537 0
-379 -538 0
-379 -539 0
-380 -382 0
-380 -383 0
-380 -384 0
-380 -385 0
-380 -386 0
-380 -387 0
-380 -388 0
-380 -389 0
-380 -390 0
-380 -532 0
-380 -533 0
-380 -534 0
-380 -535 0
-380 -536 0
-380 -537 0
-380 -538 0
-380 -539 0
-380 -540 0
-381 -391 0
-381 -393 0
-381 -394 0
-381 -396 0
-381 -397 0
-381 -398 0
-381 -399 0
-381 -400 0
-381 -541 0
-381 -543 0
-381 -544 0
-381 -546 0
-381 -547 0
-381 -548 0
-381 -549 0
-381 -550 0
-382 -391 0
-382 -392 0
-382 -394 0
-382 -395 0
-382 -396 0
-382 -397 0
-382 -398 0
-382 -399 0
-382 -400 0
-382 -541 0
-382 -542 0
-382 -543 0
-382 -544 0
-382 -545 0
-382 -547 0
-382 -548 0
-382 -549 0
-382 -550 0
-383 -391 0
-383 -392 0
-383 -393 0
-383 -395 0
-383 -396 0
-383 -397 0
-383 -398 0
-383 -399 0
-383 -400 0
-383 -541 0
-383 -542 0
-383 -543 0
-383 -544 0
-383 -545 0
-383 -546 0
-383 -548 0
-383 -549 0
-383 -550 0
-384 -392 0
-384 -393 0
-384 -394 0
-384 -395 0
-384 -396 0
-384 -397 0
-384 -398 0
-384 -399 0
-384 -400 0
-384 -541 0
-384 -542 0
-384 -543 0
-384 -544 0
-384 -545 0
-384 -546 0
-384 -547 0
-384 -549 0
-384 -550 0
-385 -391 0
-385 -392 0
-385 -393 0
-385 -394 0
-385 -395 0
-385 -397 0
-385 -398 0
-385 -400 0
-385 -541 0
-385 -542 0
-385 -544 0
-385 -545 0
-385 -546 0
-385 -547 0
-385 -548 0
-385 -550 0
-386 -391 0
-386 -392 0
-386 -393 0
-386 -394 0
-386 -395 0
-386 -396 0
-386 -398 0
-386 -399 0
-386 -400 0
-386 -541 0
-386 -542 0
-386 -543 0
-386 -545 0
-386 -546 0
-386 -547 0
-386 -548 0
-386 -549 0
-387 -391 0
-387 -392 0
-387 -393 0
-387 -394 0
-387 -395 0
-387 -396 0
-387 -397 0
-387 -399 0
-387 -400 0
-387 -542 0
-387 -543 0
-387 -544 0
-387 -545 0
-387 -546 0
-387 -547 0
-387 -548 0
-387 -549 0
-387 -550 0
-388 -391 0
-388 -393 0
-388 -394 0
-388 -396 0
-388 -397 0
-388 -398 0
-388 -399 0
-388 -400 0
-388 -541 0
-388 -543 0
-388 -544 0
-388 -546 0
-388 -547 0
-388 -548 0
-388 -549 0
-388 -550 0
-389 -391 0
-389 -392 0
-389 -393 0
-389 -394 0
-389 -395 0
-389 -396 0
-389 -397 0
-389 -398 0
-389 -399 0
-389 -541 0
-389 -542 0
-389 -543 0
-389 -545 0
-389 -546 0
-389 -547 0
-389 -548 0
-389 -549 0
-390 -392 0
-390 -393 0
-390 -394 0
-390 -395 0
-390 -396 0
-390 -397 0
-390 -398 0
-390 -399 0
-390 -400 0
-390 -542 0
-390 -543 0
-390 -544 0
-390 -545 0
-390 -546 0
-390 -547 0
-390 -548 0
-390 -549 0
-390 -550 0
-391 -401 0
-391 -403 0
-391 -404 0
-391 -406 0
-391 -407 0
-391 -408 0
-391 -409 0
-391 -410 0
-391 -551 0
-391 -553 0
-391 -554 0
-391 -556 0
-391 -557 0
-391 -558 0
-391 -559 0
-391 -560 0
-392 -401 0
-392 -402 0
-392 -404 0
-392 -405 0
-392 -406 0
-392 -407 0
-392 -408 0
-392 -409 0
-392 -410 0
-392 -551 0
-392 -552 0
-392 -553 0
-392 -554 0
-392 -555 0
-392 -557 0
-392 -558 0
-392 -559 0
-392 -560 0
-393 -401 0
-393 -402 0
-393 -403 0
-393 -405 0
-393 -406 0
-393 -407 0
-393 -408 0
-393 -409 0
-393 -410 0
-393 -551 0
-393 -552 0
-393 -553 0
-393 -554 0
-393 -555 0
-393 -556 0
-393 -558 0
-393 -559 0
-393 -560 0
-394 -402 0
-394 -403 0
-394 -404 0
-394 -405 0
-394 -406 0
-394 -407 0
-394 -408 0
-394 -409 0
-394 -410 0
-394 -551 0
-394 -552 0
-394 -553 0
-394 -554 0
-394 -555 0
-394 -556 0
-394 -557 0
-394 -559 0
-394 -560 0
-395 -401 0
-395 -402 0
-395 -403 0
-395 -404 0
-395 -405 0
-395 -407 0
-395 -408 0
-395 -410 0
-395 -551 0
-395 -552 0
-395 -554 0
-395 -555 0
-395 -556 0
-395 -557 0
-395 -558 0
-395 -560 0
-396 -401 0
-396 -402 0
-396 -403 0
-396 -404 0
-396 -405 0
-396 -406 0
-396 -408 0
-396 -409 0
-396 -410 0
-396 -551 0
-396 -552 0
-396 -553 0
-396 -555 0
-396 -556 0
-396 -557 0
-396 -558 0
-396 -559 0
-397 -401 0
-397 -402 0
-397 -403 0
-397 -404 0
-397 -405 0
-397 -406 0
-397 -407 0
-397 -409 0
-397 -410 0
-397 -552 0
-397 -553 0
-397 -554 0
-397 -555 0
-397 -556 0
-397 -557 0
-397 -558 0
-397 -559 0
-397 -560 0
-398 -401 0
-398 -403 0
-398 -404 0
-398 -406 0
-398 -407 0
-398 -408 0
-398 -409 0
-398 -410 0
-398 -551 0
-398 -553 0
-398 -554 0
-398 -556 0
-398 -557 0
-398 -558 0
-398 -559 0
-398 -560 0
-399 -401 0
-399 -402 0
-399 -403 0
-399 -404 0
-399 -405 0
-399 -406 0
-399 -407 0
-399 -408 0
-399 -409 0
-399 -551 0
-399 -552 0
-399 -553 0
-399 -555 0
-399 -556 0
-399 -557 0
-399 -558 0
-399 -559 0
-400 -402 0
-400 -403 0
-400 -404 0
-400 -405 0
-400 -406 0
-400 -407 0
-400 -408 0
-400 -409 0
-400 -410 0
-400 -552 0
-400 -553 0
-400 -554 0
-400 -555 0
-400 -556 0
-400 -557 0
-400 -558 0
-400 -559 0
-400 -560 0
-401 -411 0
-401 -413 0
-401 -414 0
-401 -416 0
-401 -417 0
-401 -418 0
-401 -419 0
-401 -420 0
-401 -561 0
-401 -563 0
-401 -564 0
-401 -566 0
-401 -567 0
-401 -568 0
-401 -569 0
-401 -570 0
-402 -411 0
-402 -412 0
-402 -414 0
-402 -415 0
-402 -416 0
-402 -417 0
-402 -418 0
-402 -419 0
-402 -420 0
-402 -561 0
-402 -562 0
-402 -563 0
-402 -564 0
-402 -565 0
-402 -567 0
-402 -568 0
-402 -569 0
-402 -570 0
-403 -411 0
-403 -412 0
-403 -413 0
-403 -415 0
-403 -416 0
-403 -417 0
-403 -418 0
-403 -419 0
-403 -420 0
-403 -561 0
-403 -562 0
-403 -563 0
-403 -564 0
-403 -565 0
-403 -566 0
-403 -568 0
-403 -569 0
-403 -570 0
-404 -412 0
-404 -413 0
-404 -414 0
-404 -415 0
-404 -416 0
-404 -417 0
-404 -418 0
-404 -419 0
-404 -420 0
-404 -561 0
-404 -562 0
-404 -563 0
-404 -564 0
-404 -565 0
-404 -566 0
-404 -567 0
-404 -569 0
-404 -570 0
-405 -411 0
-405 -412 0
-405 -413 0
-405 -414 0
-405 -415 0
-405 -417 0
-405 -418 0
-405 -420 0
-405 -561 0
-405 -562 0
-405 -564 0
-405 -565 0
-405 -566 0
-405 -567 0
-405 -568 0
-405 -570 0
-406 -411 0
-406 -412 0
-406 -413 0
-406 -414 0
-406 -415 0
-406 -416 0
-406 -418 0
-406 -419 0
-406 -420 0
-406 -561 0
-406 -562 0
-406 -563 0
-406 -565 0
-406 -566 0
-406 -567 0
-406 -568 0
-406 -569 0
-407 -411 0
-407 -412 0
-407 -413 0
-407 -414 0
-407 -415 0
-407 -416 0
-407 -417 0
-407 -419 0
-407 -420 0
-407 -562 0
-407 -563 0
-407 -564 0
-407 -565 0
-407 -566 0
-407 -567 0
-407 -568 0
-407 -569 0
-407 -570 0
-408 -411 0
-408 -413 0
-408 -414 0
-408 -416 0
-408 -417 0
-408 -418 0
-408 -419 0
-408 -420 0
-408 -561 0
-408 -563 0
-408 -564 0
-408 -566 0
-408 -567 0
-408 -568 0
-408 -569 0
-408 -570 0
-409 -411 0
-409 -412 0
-409 -413 0
-409 -414 0
-409 -415 0
-409 -416 0
-409 -417 0
-409 -418 0
-409 -419 0
-409 -561 0
-409 -562 0
-409 -563 0
-409 -565 0
-409 -566 0
-409 -567 0
-409 -568 0
-409 -569 0
-410 -412 0
-410 -413 0
-410 -414 0
-410 -415 0
-410 -416 0
-410 -417 0
-410 -418 0
-410 -419 0
-410 -420 0
-410 -562 0
-410 -563 0
-410 -564 0
-410 -565 0
-410 -566 0
-410 -567 0
-410 -568 0
-410 -569 0
-410 -570 0
-411 -421 0
-411 -423 0
-411 -424 0
-411 -426 0
-411 -427 0
-411 -428 0
-411 -429 0
-411 -430 0
-411 -571 0
-411 -573 0
-411 -574 0
-411 -576 0
-411 -577 0
-411 -578 0
-411 -579 0
-411 -580 0
-412 -421 0
-412 -422 0
-412 -424 0
-412 -425 0
-412 -426 0
-412 -427 0
-412 -428 0
-412 -429 0
-412 -430 0
-412 -571 0
-412 -572 0
-412 -573 0
-412 -574 0
-412 -575 0
-412 -577 0
-412 -578 0
-412 -579 0
-412 -580 0
-413 -421 0
-413 -422 0
-413 -423 0
-413 -425 0
-413 -426 0
-413 -427 0
-413 -428 0
-413 -429 0
-413 -430 0
-413 -571 0
-413 -572 0
-413 -573 0
-413 -574 0
-413 -575 0
-413 -576 0
-413 -578 0
-413 -579 0
-413 -580 0
-414 -422 0
-414 -423 0
-414 -424 0
-414 -425 0
-414 -426 0
-414 -427 0
-414 -428 0
-414 -429 0
-414 -430 0
-414 -571 0
-414 -572 0
-414 -573 0
-414 -574 0
-414 -575 0
-414 -576 0
-414 -577 0
-414 -579 0
-414 -580 0
-415 -421 0
-415 -422 0
-415 -423 0
-415 -424 0
-415 -425 0
-415 -427 0
-415 -428 0
-415 -430 0
-415 -571 0
-415 -572 0
-415 -574 0
-415 -575 0
-415 -576 0
-415 -577 0
-415 -578 0
-415 -580 0
-416 -421 0
-416 -422 0
-416 -423 0
-416 -424 0
-416 -425 0
-416 -426 0
-416 -428 0
-416 -429 0
-416 -430 0
-416 -571 0
-416 -572 0
-416 -573 0
-416 -575 0
-416 -576 0
-416 -577 0
-416 -578 0
-416 -579 0
-417 -421 0
-417 -422 0
-417 -423 0
-417 -424 0
-417 -425 0
-417 -426 0
-417 -427 0
-417 -429 0
-417 -430 0
-417 -572 0
-417 -573 0
-417 -574 0
-417 -575 0
-417 -576 0
-417 -577 0
-417 -578 0
-417 -579 0
-417 -580 0
-418 -421 0
-418 -423 0
-418 -424 0
-418 -426 0
-418 -427 0
-418 -428 0
-418 -429 0
-418 -430 0
-418 -571 0
-418 -573 0
-418 -574 0
-418 -576 0
-418 -577 0
-418 -578 0
-418 -579 0
-418 -580 0
-419 -421 0
-419 -422 0
-419 -423 0
-419 -424 0
-419 -425 0
-419 -426 0
-419 -427 0
-419 -428 0
-419 -429 0
-419 -571 0
-419 -572 0
-419 -573 0
-419 -575 0
-419 -576 0
-419 -577 0
-419 -578 0
-419 -579 0
-420 -422 0
-420 -423 0
-420 -424 0
-420 -425 0
-420 -426 0
-420 -427 0
-420 -428 0
-420 -429 0
-420 -430 0
-420 -572 0
-420 -573 0
-420 -574 0
-420 -575 0
-420 -576 0
-420 -577 0
-420 -578 0
-420 -579 0
-420 -580 0
-421 -431 0
-421 -433 0
-421 -434 0
-421 -436 0
-421 -437 0
-421 -438 0
-421 -439 0
-421 -440 0
-421 -581 0
-421 -583 0
-421 -584 0
-421 -586 0
-421 -587 0
-421 -588 0
-421 -589 0
-421 -590 0
-422 -431 0
-422 -432 0
-422 -434 0
-422 -435 0
-422 -436 0
-422 -437 0
-422 -438 0
-422 -439 0
-422 -440 0
-422 -581 0
-422 -582 0
-422 -583 0
-422 -584 0
-422 -585 0
-422 -587 0
-422 -588 0
-422 -589 0
-422 -590 0
-423 -431 0
-423 -432 0
-423 -433 0
-423 -435 0
-423 -436 0
-423 -437 0
-423 -438 0
-423 -439 0
-423 -440 0
-423 -581 0
-423 -582 0
-423 -583 0
-423 -584 0
-423 -585 0
-423 -586 0
-423 -588 0
-423 -589 0
-423 -590 0
-424 -432 0
-424 -433 0
-424 -434 0
-424 -435 0
-424 -436 0
-424 -437 0
-424 -438 0
-424 -439 0
-424 -440 0
-424 -581 0
-424 -582 0
-424 -583 0
-424 -584 0
-424 -585 0
-424 -586 0
-424 -587 0
-424 -589 0
-424 -590 0
-425 -431 0
-425 -432 0
-425 -433 0
-425 -434 0
-425 -435 0
-425 -437 0
-425 -438 0
-425 -440 0
-425 -581 0
-425 -582 0
-425 -584 0
-425 -585 0
-425 -586 0
-425 -587 0
-425 -588 0
-425 -590 0
-426 -431 0
-426 -432 0
-426 -433 0
-426 -434 0
-426 -435 0
-426 -436 0
-426 -438 0
-426 -439 0
-426 -440 0
-426 -581 0
-426 -582 0
-426 -583 0
-426 -585 0
-426 -586 0
-426 -587 0
-426 -588 0
-426 -589 0
-427 -431 0
-427 -432 0
-427 -433 0
-427 -434 0
-427 -435 0
-427 -436 0
-427 -437 0
-427 -439 0
-427 -440 0
-427 -582 0
-427 -583 0
-427 -584 0
-427 -585 0
-427 -586 0
-427 -587 0
-427 -588 0
-427 -589 0
-427 -590 0
-428 -431 0
-428 -433 0
-428 -434 0
-428 -436 0
-428 -437 0
-428 -438 0
-428 -439 0
-428 -440 0
-428 -581 0
-428 -583 0
-428 -584 0
-428 -586 0
-428 -587 0
-428 -588 0
-428 -589 0
-428 -590 0
-429 -431 0
-429 -432 0
-429 -433 0
-429 -434 0
-429 -435 0
-429 -436 0
-429 -437 0
-429 -438 0
-429 -439 0
-429 -581 0
-429 -582 0
-429 -583 0
-429 -585 0
-429 -586 0
-429 -587 0
-429 -588 0
-429 -589 0
-430 -432 0
-430 -433 0
-430 -434 0
-430 -435 0
-430 -436 0
-430 -437 0
-430 -438 0
-430 -439 0
-430 -440 0
-430 -582 0
-430 -583 0
-430 -584 0
-430 -585 0
-430 -586 0
-430 -587 0
-430 -588 0
-430 -589 0
-430 -590 0
-431 -441 0
-431 -443 0
-431 -444 0
-431 -446 0
-431 -447 0
-431 -448 0
-431 -449 0
-431 -450 0
-431 -591 0
-431 -593 0
-431 -594 0
-431 -596 0
-431 -597 0
-431 -598 0
-431 -599 0
-431 -600 0
-432 -441 0
-432 -442 0
-432 -444 0
-432 -445 0
-432 -446 0
-432 -447 0
-432 -448 0
-432 -449 0
-432 -450 0
-432 -591 0
-432 -592 0
-432 -593 0
-432 -594 0
-432 -595 0
-432 -597 0
-432 -598 0
-432 -599 0
-432 -600 0
-433 -441 0
-433 -442 0
-433 -443 0
-433 -445 0
-433 -446 0
-433 -447 0
-433 -448 0
-433 -449 0
-433 -450 0
-433 -591 0
-433 -592 0
-433 -593 0
-433 -594 0
-433 -595 0
-433 -596 0
-433 -598 0
-433 -599 0
-433 -600 0
-434 -442 0
-434 -443 0
-434 -444 0
-434 -445 0
-434 -446 0
-434 -447 0
-434 -448 0
-434 -449 0
-434 -450 0
-434 -591 0
-434 -592 0
-434 -593 0
-434 -594 0
-434 -595 0
-434 -596 0
-434 -597 0
-434 -599 0
-434 -600 0
-435 -441 0
-435 -442 0
-435 -443 0
-435 -444 0
-435 -445 0
-435 -447 0
-435 -448 0
-435 -450 0
-435 -591 0
-435 -592 0
-435 -594 0
-435 -595 0
-435 -596 0
-435 -597 0
-435 -598 0
-435 -600 0
-436 -441 0
-436 -442 0
-436 -443 0
-436 -444 0
-436 -445 0
-436 -446 0
-436 -448 0
-436 -449 0
-436 -450 0
-436 -591 0
-436 -592 0
-436 -593 0
-436 -595 0
-436 -596 0
-436 -597 0
-436 -598 0
-436 -599 0
-437 -441 0
-437 -442 0
-437 -443 0
-437 -444 0
-437 -445 0
-437 -446 0
-437 -447 0
-437 -449 0
-437 -450 0
-437 -592 0
-437 -593 0
-437 -594 0
-437 -595 0
-437 -596 0
-437 -597 0
-437 -598 0
-437 -599 0
-437 -600 0
-438 -441 0
-438 -443 0
-438 -444 0
-438 -446 0
-438 -447 0
-438 -448 0
-438 -449 0
-438 -450 0
-438 -591 0
-438 -593 0
-438 -594 0
-438 -596 0
-438 -597 0
-438 -598 0
-438 -599 0
-438 -600 0
-439 -441 0
-439 -442 0
-439 -443 0
-439 -444 0
-439 -445 0
-439 -446 0
-439 -447 0
-439 -448 0
-439 -449 0
-439 -591 0
-439 -592 0
-439 -593 0
-439 -595 0
-439 -596 0
-439 -597 0
-439 -598 0
-439 -599 0
-440 -442 0
-440 -443 0
-440 -444 0
-440 -445 0
-440 -446 0
-440 -447 0
-440 -448 0
-440 -449 0
-440 -450 0
-440 -592 0
-440 -593 0
-440 -594 0
-440 -595 0
-440 -596 0
-440 -597 0
-440 -598 0
-440 -599 0
-440 -600 0
-441 -451 0
-441 -453 0
-441 -454 0
-441 -456 0
-441 -457 0
-441 -458 0
-441 -459 0
-441 -460 0
-441 -601 0
-441 -603 0
-441 -604 0
-441 -606 0
-441 -607 0
-441 -608 0
-441 -609 0
-441 -610 0
-442 -451 0
-442 -452 0
-442 -454 0
-442 -455 0
-442 -456 0
-442 -457 0
-442 -458 0
-442 -459 0
-442 -460 0
-442 -601 0
-442 -602 0
-442 -603 0
-442 -604 0
-442 -605 0
-442 -607 0
-442 -608 0
-442 -609 0
-442 -610 0
-443 -451 0
-443 -452 0
-443 -453 0
-443 -455 0
-443 -456 0
-443 -457 0
-443 -458 0
-443 -459 0
-443 -460 0
-443 -601 0
-443 -602 0
-443 -603 0
-443 -604 0
-443 -605 0
-443 -606 0
-443 -608 0
-443 -609 0
-443 -610 0
-444 -452 0
-444 -453 0
-444 -454 0
-444 -455 0
-444 -456 0
-444 -457 0
-444 -458 0
-444 -459 0
-444 -460 0
-444 -601 0
-444 -602 0
-444 -603 0
-444 -604 0
-444 -605 0
-444 -606 0
-444 -607 0
-444 -609 0
-444 -610 0
-445 -451 0
-445 -452 0
-445 -453 0
-445 -454 0
-445 -455 0
-445 -457 0
-445 -458 0
-445 -460 0
-445 -601 0
-445 -602 0
-445 -604 0
-445 -605 0
-445 -606 0
-445 -607 0
-445 -608 0
-445 -610 0
-446 -451 0
-446 -452 0
-446 -453 0
-446 -454 0
-446 -455 0
-446 -456 0
-446 -458 0
-446 -459 0
-446 -460 0
-446 -601 0
-446 -602 0
-446 -603 0
-446 -605 0
-446 -606 0
-446 -607 0
-446 -608 0
-446 -609 0
-447 -451 0
-447 -452 0
-447 -453 0
-447 -454 0
-447 -455 0
-447 -456 0
-447 -457 0
-447 -459 0
-447 -460 0
-447 -602 0
-447 -603 0
-447 -604 0
-447 -605 0
-447 -606 0
-447 -607 0
-447 -608 0
-447 -609 0
-447 -610 0
-448 -451 0
-448 -453 0
-448 -454 0
-448 -456 0
-448 -457 0
-448 -458 0
-448 -459 0
-448 -460 0
-448 -601 0
-448 -603 0
-448 -604 0
-448 -606 0
-448 -607 0
-448 -608 0
-448 -609 0
-448 -610 0
-449 -451 0
-449 -452 0
-449 -453 0
-449 -454 0
-449 -455 0
-449 -456 0
-449 -457 0
-449 -458 0
-449 -459 0
-449 -601 0
-449 -602 0
-449 -603 0
-449 -605 0
-449 -606 0
-449 -607 0
-449 -608 0
-449 -609 0
-450 -452 0
-450 -453 0
-450 -454 0
-450 -455 0
-450 -456 0
-450 -457 0
-450 -458 0
-450 -459 0
-450 -460 0
-450 -602 0
-450 -603 0
-450 -604 0
-450 -605 0
-450 -606 0
-450 -607 0
-450 -608 0
-450 -609 0
-450 -610 0
-451 -461 0
-451 -463 0
-451 -464 0
-451 -466 0
-451 -467 0
-451 -468 0
-451 -469 0
-451 -470 0
-451 -611 0
-451 -613 0
-451 -614 0
-451 -616 0
-451 -617 0
-451 -618 0
-451 -619 0
-451 -620 0
-452 -461 0
-452 -462 0
-452 -464 0
-452 -465 0
-452 -466 0
-452 -467 0
-452 -468 0
-452 -469 0
-452 -470 0
-452 -611 0
-452 -612 0
-452 -613 0
-452 -614 0
-452 -615 0
-452 -617 0
-452 -618 0
-452 -619 0
-452 -620 0
-453 -461 0
-453 -462 0
-453 -463 0
-453 -465 0
-453 -466 0
-453 -467 0
-453 -468 0
-453 -469 0
-453 -470 0
-453 -611 0
-453 -612 0
-453 -613 0
-453 -614 0
-453 -615 0
-453 -616 0
-453 -618 0
-453 -619 0
-453 -620 0
-454 -462 0
-454 -463 0
-454 -464 0
-454 -465 0
-454 -466 0
-454 -467 0
-454 -468 0
-454 -469 0
-454 -470 0
-454 -611 0
-454 -612 0
-454 -613 0
-454 -614 0
-454 -615 0
-454 -616 0
-454 -617 0
-454 -619 0
-454 -620 0
-455 -461 0
-455 -462 0
-455 -463 0
-455 -464 0
-455 -465 0
-455 -467 0
-455 -468 0
-455 -470 0
-455 -611 0
-455 -612 0
-455 -614 0
-455 -615 0
-455 -616 0
-455 -617 0
-455 -618 0
-455 -620 0
-456 -461 0
-456 -462 0
-456 -463 0
-456 -464 0
-456 -465 0
-456 -466 0
-456 -468 0
-456 -469 0
-456 -470 0
-456 -611 0
-456 -612 0
-456 -613 0
-456 -615 0
-456 -616 0
-456 -617 0
-456 -618 0
-456 -619 0
-457 -461 0
-457 -462 0
-457 -463 0
-457 -464 0
-457 -465 0
-457 -466 0
-457 -467 0
-457 -469 0
-457 -470 0
-457 -612 0
-457 -613 0
-457 -614 0
-457 -615 0
-457 -616 0
-457 -617 0
-457 -618 0
-457 -619 0
-457 -620 0
-458 -461 0
-458 -463 0
-458 -464 0
-458 -466 0
-458 -467 0
-458 -468 0
-458 -469 0
-458 -470 0
-458 -611 0
-458 -613 0
-458 -614 0
-458 -616 0
-458 -617 0
-458 -618 0
-458 -619 0
-458 -620 0
-459 -461 0
-459 -462 0
-459 -463 0
-459 -464 0
-459 -465 0
-459 -466 0
-459 -467 0
-459 -468 0
-459 -469 0
-459 -611 0
-459 -612 0
-459 -613 0
-459 -615 0
-459 -616 0
-459 -617 0
-459 -618 0
-459 -619 0
-460 -462 0
-460 -463 0
-460 -464 0
-460 -465 0
-460 -466 0
-460 -467 0
-460 -468 0
-460 -469 0
-460 -470 0
-460 -612 0
-460 -613 0
-460 -614 0
-460 -615 0
-460 -616 0
-460 -617 0
-460 -618 0
-460 -619 0
-460 -620 0
-461 -471 0
-461 -473 0
-461 -474 0
-461 -476 0
-461 -477 0
-461 -478 0
-461 -479 0
-461 -480 0
-461 -621 0
-461 -623 0
-461 -624 0
-461 -626 0
-461 -627 0
-461 -628 0
-461 -629 0
-461 -630 0
-462 -471 0
-462 -472 0
-462 -474 0
-462 -475 0
-462 -476 0
-462 -477 0
-462 -478 0
-462 -479 0
-462 -480 0
-462 -621 0
-462 -622 0
-462 -623 0
-462 -624 0
-462 -625 0
-462 -627 0
-462 -628 0
-462 -629 0
-462 -630 0
-463 -471 0
-463 -472 0
-463 -473 0
-463 -475 0
-463 -476 0
-463 -477 0
-463 -478 0
-463 -479 0
-463 -480 0
-463 -621 0
-463 -622 0
-463 -623 0
-463 -624 0
-463 -625 0
-463 -626 0
-463 -628 0
-463 -629 0
-463 -630 0
-464 -472 0
-464 -473 0
-464 -474 0
-464 -475 0
-464 -476 0
-464 -477 0
-464 -478 0
-464 -479 0
-464 -480 0
-464 -621 0
-464 -622 0
-464 -623 0
-464 -624 0
-464 -625 0
-464 -626 0
-464 -627 0
-464 -629 0
-464 -630 0
-465 -471 0
-465 -472 0
-465 -473 0
-465 -474 0
-465 -475 0
-465 -477 0
-465 -478 0
-465 -480 0
-465 -621 0
-465 -622 0
-465 -624 0
-465 -625 0
-465 -626 0
-465 -627 0
-465 -628 0
-465 -630 0
-466 -471 0
-466 -472 0
-466 -473 0
-466 -474 0
-466 -475 0
-466 -476 0
-466 -478 0
-466 -479 0
-466 -480 0
-466 -621 0
-466 -622 0
-466 -623 0
-466 -625 0
-466 -626 0
-466 -627 0
-466 -628 0
-466 -629 0
-467 -471 0
-467 -472 0
-467 -473 0
-467 -474 0
-467 -475 0
-467 -476 0
-467 -477 0
-467 -479 0
-467 -480 0
-467 -622 0
-467 -623 0
-467 -624 0
-467 -625 0
-467 -626 0
-467 -627 0
-467 -628 0
-467 -629 0
-467 -630 0
-468 -471 0
-468 -473 0
-468 -474 0
-468 -476 0
-468 -477 0
-468 -478 0
-468 -479 0
-468 -480 0
-468 -621 0
-468 -623 0
-468 -624 0
-468 -626 0
-468 -627 0
-468 -628 0
-468 -629 0
-468 -630 0
-469 -471 0
-469 -472 0
-469 -473 0
-469 -474 0
-469 -475 0
-469 -476 0
-469 -477 0
-469 -478 0
-469 -479 0
-469 -621 0
-469 -622 0
-469 -623 0
-469 -625 0
-469 -626 0
-469 -627 0
-469 -628 0
-469 -629 0
-470 -472 0
-470 -473 0
-470 -474 0
-470 -475 0
-470 -476 0
-470 -477 0
-470 -478 0
-470 -479 0
-470 -480 0
-470 -622 0
-470 -623 0
-470 -624 0
-470 -625 0
-470 -626 0
-470 -627 0
-470 -628 0
-470 -629 0
-470 -630 0
-471 -631 0
-471 -633 0
-471 -634 0
-471 -636 0
-471 -637 0
-471 -638 0
-471 -639 0
-471 -640 0
-472 -631 0
-472 -632 0
-472 -633 0
-472 -634 0
-472 -635 0
-472 -637 0
-472 -638 0
-472 -639 0
-472 -640 0
-473 -631 0
-473 -632 0
-473 -633 0
-473 -634 0
-473 -635 0
-473 -636 0
-473 -638 0
-473 -639 0
-473 -640 0
-474 -631 0
-474 -632 0
-474 -633 0
-474 -634 0
-474 -635 0
-474 -636 0
-474 -637 0
-474 -639 0
-474 -640 0
-475 -631 0
-475 -632 0
-475 -634 0
-475 -635 0
-475 -636 0
-475 -637 0
-475 -638 0
-475 -640 0
-476 -631 0
-476 -632 0
-476 -633 0
-476 -635 0
-476 -636 0
-476 -637 0
-476 -638 0
-476 -639 0
-477 -632 0
-477 -633 0
-477 -634 0
-477 -635 0
-477 -636 0
-477 -637 0
-477 -638 0
-477 -639 0
-477 -640 0
-478 -631 0
-478 -633 0
-478 -634 0
-478 -636 0
-478 -637 0
-478 -638 0
-478 -639 0
-478 -640 0
-479 -631 0
-479 -632 0
-479 -633 0
-479 -635 0
-479 -636 0
-479 -637 0
-479 -638 0
-479 -639 0
-480 -632 0
-480 -633 0
-480 -634 0
-480 -635 0
-480 -636 0
-480 -637 0
-480 -638 0
-480 -639 0
-480 -640 0
-481 -491 0
-481 -493 0
-481 -494 0
-481 -496 0
-481 -497 0
-481 -498 0
-481 -499 0
-481 -500 0
-481 -641 0
-481 -643 0
-481 -644 0
-481 -646 0
-481 -647 0
-481 -648 0
-481 -649 0
-481 -650 0
-482 -491 0
-482 -492 0
-482 -494 0
-482 -495 0
-482 -496 0
-482 -497 0
-482 -498 0
-482 -499 0
-482 -500 0
-482 -641 0
-482 -642 0
-482 -643 0
-482 -644 0
-482 -645 0
-482 -647 0
-482 -648 0
-482 -649 0
-482 -650 0
-483 -491 0
-483 -492 0
-483 -493 0
-483 -495 0
-483 -496 0
-483 -497 0
-483 -498 0
-483 -499 0
-483 -500 0
-483 -641 0
-483 -642 0
-483 -643 0
-483 -644 0
-483 -645 0
-483 -646 0
-483 -648 0
-483 -649 0
-483 -650 0
-484 -492 0
-484 -493 0
-484 -494 0
-484 -495 0
-484 -496 0
-484 -497 0
-484 -498 0
-484 -499 0
-484 -500 0
-484 -641 0
-484 -642 0
-484 -643 0
-484 -644 0
-484 -645 0
-484 -646 0
-484 -647 0
-484 -649 0
-484 -650 0
-485 -491 0
-485 -492 0
-485 -493 0
-485 -494 0
-485 -495 0
-485 -497 0
-485 -498 0
-485 -500 0
-485 -641 0
-485 -642 0
-485 -644 0
-485 -645 0
-485 -646 0
-485 -647 0
-485 -648 0
-485 -650 0
-486 -491 0
-486 -492 0
-486 -493 0
-486 -494 0
-486 -495 0
-486 -496 0
-486 -498 0
-486 -499 0
-486 -500 0
-486 -641 0
-486 -642 0
-486 -643 0
-486 -645 0
-486 -646 0
-486 -647 0
-486 -648 0
-486 -649 0
-487 -491 0
-487 -492 0
-487 -493 0
-487 -494 0
-487 -495 0
-487 -496 0
-487 -497 0
-487 -499 0
-487 -500 0
-487 -642 0
-487 -643 0
-487 -644 0
-487 -645 0
-487 -646 0
-487 -647 0
-487 -648 0
-487 -649 0
-487 -650 0
-488 -491 0
-488 -493 0
-488 -494 0
-488 -496 0
-488 -497 0
-488 -498 0
-488 -499 0
-488 -500 0
-488 -641 0
-488 -643 0
-488 -644 0
-488 -646 0
-488 -647 0
-488 -648 0
-488 -649 0
-488 -650 0
-489 -491 0
-489 -492 0
-489 -493 0
-489 -494 0
-489 -495 0
-489 -496 0
-489 -497 0
-489 -498 0
-489 -499 0
-489 -641 0
-489 -642 0
-489 -643 0
-489 -645 0
-489 -646 0
-489 -647 0
-489 -648 0
-489 -649 0
-490 -492 0
-490 -493 0
-490 -494 0
-490 -495 0
-490 -496 0
-490 -497 0
-490 -498 0
-490 -499 0
-490 -500 0
-490 -642 0
-490 -643 0
-490 -644 0
-490 -645 0
-490 -646 0
-490 -647 0
-490 -648 0
-490 -649 0
-490 -650 0
-491 -501 0
-491 -503 0
-491 -504 0
-491 -506 0
-491 -507 0
-491 -508 0
-491 -509 0
-491 -510 0
-491 -651 0
-491 -653 0
-491 -654 0
-491 -656 0
-491 -657 0
-491 -658 0
-491 -659 0
-491 -660 0
-492 -501 0
-492 -502 0
-492 -504 0
-492 -505 0
-492 -506 0
-492 -507 0
-492 -508 0
-492 -509 0
-492 -510 0
-492 -651 0
-492 -652 0
-492 -653 0
-492 -654 0
-492 -655 0
-492 -657 0
-492 -658 0
-492 -659 0
-492 -660 0
-493 -501 0
-493 -502 0
-493 -503 0
-493 -505 0
-493 -506 0
-493 -507 0
-493 -508 0
-493 -509 0
-493 -510 0
-493 -651 0
-493 -652 0
-493 -653 0
-493 -654 0
-493 -655 0
-493 -656 0
-493 -658 0
-493 -659 0
-493 -660 0
-494 -502 0
-494 -503 0
-494 -504 0
-494 -505 0
-494 -506 0
-494 -507 0
-494 -508 0
-494 -509 0
-494 -510 0
-494 -651 0
-494 -652 0
-494 -653 0
-494 -654 0
-494 -655 0
-494 -656 0
-494 -657 0
-494 -659 0
-494 -660 0
-495 -501 0
-495 -502 0
-495 -503 0
-495 -504 0
-495 -505 0
-495 -507 0
-495 -508 0
-495 -510 0
-495 -651 0
-495 -652 0
-495 -654 0
-495 -655 0
-495 -656 0
-495 -657 0
-495 -658 0
-495 -660 0
-496 -501 0
-496 -502 0
-496 -503 0
-496 -504 0
-496 -505 0
-496 -506 0
-496 -508 0
-496 -509 0
-496 -510 0
-496 -651 0
-496 -652 0
-496 -653 0
-496 -655 0
-496 -656 0
-496 -657 0
-496 -658 0
-496 -659 0
-497 -501 0
-497 -502 0
-497 -503 0
-497 -504 0
-497 -505 0
-497 -506 0
-497 -507 0
-497 -509 0
-497 -510 0
-497 -652 0
-497 -653 0
-497 -654 0
-497 -655 0
-497 -656 0
-497 -657 0
-497 -658 0
-497 -659 0
-497 -660 0
-498 -501 0
-498 -503 0
-498 -504 0
-498 -506 0
-498 -507 0
-498 -508 0
-498 -509 0
-498 -510 0
-498 -651 0
-498 -653 0
-498 -654 0
-498 -656 0
-498 -657 0
-498 -658 0
-498 -659 0
-498 -660 0
-499 -501 0
-499 -502 0
-499 -503 0
-499 -504 0
-499 -505 0
-499 -506 0
-499 -507 0
-499 -508 0
-499 -509 0
-499 -651 0
-499 -652 0
-499 -653 0
-499 -655 0
-499 -656 0
-499 -657 0
-499 -658 0
-499 -659 0
-500 -502 0
-500 -503 0
-500 -504 0
-500 -505 0
-500 -506 0
-500 -507 0
-500 -508 0
-500 -509 0
-500 -510 0
-500 -652 0
-500 -653 0
-500 -654 0
-500 -655 0
-500 -656 0
-500 -657 0
-500 -658 0
-500 -659 0
-500 -660 0
-501 -511 0
-501 -513 0
-501 -514 0
-501 -516 0
-501 -517 0
-501 -518 0
-501 -519 0
-501 -520 0
-501 -661 0
-501 -663 0
-501 -664 0
-501 -666 0
-501 -667 0
-501 -668 0
-501 -669 0
-501 -670 0
-502 -511 0
-502 -512 0
-502 -514 0
-502 -515 0
-502 -516 0
-502 -517 0
-502 -518 0
-502 -519 0
-502 -520 0
-502 -661 0
-502 -662 0
-502 -663 0
-502 -664 0
-502 -665 0
-502 -667 0
-502 -668 0
-502 -669 0
-502 -670 0
-503 -511 0
-503 -512 0
-503 -513 0
-503 -515 0
-503 -516 0
-503 -517 0
-503 -518 0
-503 -519 0
-503 -520 0
-503 -661 0
-503 -662 0
-503 -663 0
-503 -664 0
-503 -665 0
-503 -666 0
-503 -668 0
-503 -669 0
-503 -670 0
-504 -512 0
-504 -513 0
-504 -514 0
-504 -515 0
-504 -516 0
-504 -517 0
-504 -518 0
-504 -519 0
-504 -520 0
-504 -661 0
-504 -662 0
-504 -663 0
-504 -664 0
-504 -665 0
-504 -666 0
-504 -667 0
-504 -669 0
-504 -670 0
-505 -511 0
-505 -512 0
-505 -513 0
-505 -514 0
-505 -515 0
-505 -517 0
-505 -518 0
-505 -520 0
-505 -661 0
-505 -662 0
-505 -664 0
-505 -665 0
-505 -666 0
-505 -667 0
-505 -668 0
-505 -670 0
-506 -511 0
-506 -512 0
-506 -513 0
-506 -514 0
-506 -515 0
-506 -516 0
-506 -518 0
-506 -519 0
-506 -520 0
-506 -661 0
-506 -662 0
-506 -663 0
-506 -665 0
-506 -666 0
-506 -667 0
-506 -668 0
-506 -669 0
-507 -511 0
-507 -512 0
-507 -513 0
-507 -514 0
-507 -515 0
-507 -516 0
-507 -517 0
-507 -519 0
-507 -520 0
-507 -662 0
-507 -663 0
-507 -664 0
-507 -665 0
-507 -666 0
-507 -667 0
-507 -668 0
-507 -669 0
-507 -670 0
-508 -511 0
-508 -513 0
-508 -514 0
-508 -516 0
-508 -517 0
-508 -518 0
-508 -519 0
-508 -520 0
-508 -661 0
-508 -663 0
-508 -664 0
-508 -666 0
-508 -667 0
-508 -668 0
-508 -669 0
-508 -670 0
-509 -511 0
-509 -512 0
-509 -513 0
-509 -514 0
-509 -515 0
-509 -516 0
-509 -517 0
-509 -518 0
-509 -519 0
-509 -661 0
-509 -662 0
-509 -663 0
-509 -665 0
-509 -666 0
-509 -667 0
-509 -668 0
-509 -669 0
-510 -512 0
-510 -513 0
-510 -514 0
-510 -515 0
-510 -516 0
-510 -517 0
-510 -518 0
-510 -519 0
-510 -520 0
-510 -662 0
-510 -663 0
-510 -664 0
-510 -665 0
-510 -666 0
-510 -667 0
-510 -668 0
-510 -669 0
-510 -670 0
-511 -521 0
-511 -523 0
-511 -524 0
-511 -526 0
-511 -527 0
-511 -528 0
-511 -529 0
-511 -530 0
-511 -671 0
-511 -673 0
-511 -674 0
-511 -676 0
-511 -677 0
-511 -678 0
-511 -679 0
-511 -680 0
-512 -521 0
-512 -522 0
-512 -524 0
-512 -525 0
-512 -526 0
-512 -527 0
-512 -528 0
-512 -529 0
-512 -530 0
-512 -671 0
-512 -672 0
-512 -673 0
-512 -674 0
-512 -675 0
-512 -677 0
-512 -678 0
-512 -679 0
-512 -680 0
-513 -521 0
-513 -522 0
-513 -523 0
-513 -525 0
-513 -526 0
-513 -527 0
-513 -528 0
-513 -529 0
-513 -530 0
-513 -671 0
-513 -672 0
-513 -673 0
-513 -674 0
-513 -675 0
-513 -676 0
-513 -678 0
-513 -679 0
-513 -680 0
-514 -522 0
-514 -523 0
-514 -524 0
-514 -525 0
-514 -526 0
-514 -527 0
-514 -528 0
-514 -529 0
-514 -530 0
-514 -671 0
-514 -672 0
-514 -673 0
-514 -674 0
-514 -675 0
-514 -676 0
-514 -677 0
-514 -679 0
-514 -680 0
-515 -521 0
-515 -522 0
-515 -523 0
-515 -524 0
-515 -525 0
-515 -527 0
-515 -528 0
-515 -530 0
-515 -671 0
-515 -672 0
-515 -674 0
-515 -675 0
-515 -676 0
-515 -677 0
-515 -678 0
-515 -680 0
-516 -521 0
-516 -522 0
-516 -523 0
-516 -524 0
-516 -525 0
-516 -526 0
-516 -528 0
-516 -529 0
-516 -530 0
-516 -671 0
-516 -672 0
-516 -673 0
-516 -675 0
-516 -676 0
-516 -677 0
-516 -678 0
-516 -679 0
-517 -521 0
-517 -522 0
-517 -523 0
-517 -524 0
-517 -525 0
-517 -526 0
-517 -527 0
-517 -529 0
-517 -530 0
-517 -672 0
-517 -673 0
-517 -674 0
-517 -675 0
-517 -676 0
-517 -677 0
-517 -678 0
-517 -679 0
-517 -680 0
-518 -521 0
-518 -523 0
-518 -524 0
-518 -526 0
-518 -527 0
-518 -528 0
-518 -529 0
-518 -530 0
-518 -671 0
-518 -673 0
-518 -674 0
-518 -676 0
-518 -677 0
-518 -678 0
-518 -679 0
-518 -680 0
-519 -521 0
-519 -522 0
-519 -523 0
-519 -524 0
-519 -525 0
-519 -526 0
-519 -527 0
-519 -528 0
-519 -529 0
-519 -671 0
-519 -672 0
-519 -673 0
-519 -675 0
-519 -676 0
-519 -677 0
-519 -678 0
-519 -679 0
-520 -522 0
-520 -523 0
-520 -524 0
-520 -525 0
-520 -526 0
-520 -527 0
-520 -528 0
-520 -529 0
-520 -530 0
-520 -672 0
-520 -673 0
-520 -674 0
-520 -675 0
-520 -676 0
-520 -677 0
-520 -678 0
-520 -679 0
-520 -680 0
-521 -531 0
-521 -533 0
-521 -534 0
-521 -536 0
-521 -537 0
-521 -538 0
-521 -539 0
-521 -540 0
-521 -681 0
-521 -683 0
-521 -684 0
-521 -686 0
-521 -687 0
-521 -688 0
-521 -689 0
-521 -690 0
-522 -531 0
-522 -532 0
-522 -534 0
-522 -535 0
-522 -536 0
-522 -537 0
-522 -538 0
-522 -539 0
-522 -540 0
-522 -681 0
-522 -682 0
-522 -683 0
-522 -684 0
-522 -685 0
-522 -687 0
-522 -688 0
-522 -689 0
-522 -690 0
-523 -531 0
-523 -532 0
-523 -533 0
-523 -535 0
-523 -536 0
-523 -537 0
-523 -538 0
-523 -539 0
-523 -540 0
-523 -681 0
-523 -682 0
-523 -683 0
-523 -684 0
-523 -685 0
-523 -686 0
-523 -688 0
-523 -689 0
-523 -690 0
-524 -532 0
-524 -533 0
-524 -534 0
-524 -535 0
-524 -536 0
-524 -537 0
-524 -538 0
-524 -539 0
-524 -540 0
-524 -681 0
-524 -682 0
-524 -683 0
-524 -684 0
-524 -685 0
-524 -686 0
-524 -687 0
-524 -689 0
-524 -690 0
-525 -531 0
-525 -532 0
-525 -533 0
-525 -534 0
-525 -535 0
-525 -537 0
-525 -538 0
-525 -540 0
-525 -681 0
-525 -682 0
-525 -684 0
-525 -685 0
-525 -686 0
-525 -687 0
-525 -688 0
-525 -690 0
-526 -531 0
-526 -532 0
-526 -533 0
-526 -534 0
-526 -535 0
-526 -536 0
-526 -538 0
-526 -539 0
-526 -540 0
-526 -681 0
-526 -682 0
-526 -683 0
-526 -685 0
-526 -686 0
-526 -687 0
-526 -688 0
-526 -689 0
-527 -531 0
-527 -532 0
-527 -533 0
-527 -534 0
-527 -535 0
-527 -536 0
-527 -537 0
-527 -539 0
-527 -540 0
-527 -682 0
-527 -683 0
-527 -684 0
-527 -685 0
-527 -686 0
-527 -687 0
-527 -688 0
-527 -689 0
-527 -690 0
-528 -531 0
-528 -533 0
-528 -534 0
-528 -536 0
-528 -537 0
-528 -538 0
-528 -539 0
-528 -540 0
-528 -681 0
-528 -683 0
-528 -684 0
-528 -686 0
-528 -687 0
-528 -688 0
-528 -689 0
-528 -690 0
-529 -531 0
-529 -532 0
-529 -533 0
-529 -534 0
-529 -535 0
-529 -536 0
-529 -537 0
-529 -538 0
-529 -539 0
-529 -681 0
-529 -682 0
-529 -683 0
-529 -685 0
-529 -686 0
-529 -687 0
-529 -688 0
-529 -689 0
-530 -532 0
-530 -533 0
-530 -534 0
-530 -535 0
-530 -536 0
-530 -537 0
-530 -538 0
-530 -539 0
-530 -540 0
-530 -682 0
-530 -683 0
-530 -684 0
-530 -685 0
-530 -686 0
-530 -687 0
-530 -688 0
-530 -689 0
-530 -690 0
-531 -541 0
-531 -543 0
-531 -544 0
-531 -546 0
-531 -547 0
-531 -548 0
-531 -549 0
-531 -550 0
-531 -691 0
-531 -693 0
-531 -694 0
-531 -696 0
-531 -697 0
-531 -698 0
-531 -699 0
-531 -700 0
-532 -541 0
-532 -542 0
-532 -544 0
-532 -545 0
-532 -546 0
-532 -547 0
-532 -548 0
-532 -549 0
-532 -550 0
-532 -691 0
-532 -692 0
-532 -693 0
-532 -694 0
-532 -695 0
-532 -697 0
-532 -698 0
-532 -699 0
-532 -700 0
-533 -541 0
-533 -542 0
-533 -543 0
-533 -545 0
-533 -546 0
-533 -547 0
-533 -548 0
-533 -549 0
-533 -550 0
-533 -691 0
-533 -692 0
-533 -693 0
-533 -694 0
-533 -695 0
-533 -696 0
-533 -698 0
-533 -699 0
-533 -700 0
-534 -542 0
-534 -543 0
-534 -544 0
-534 -545 0
-534 -546 0
-534 -547 0
-534 -548 0
-534 -549 0
-534 -550 0
-534 -691 0
-534 -692 0
-534 -693 0
-534 -694 0
-534 -695 0
-534 -696 0
-534 -697 0
-534 -699 0
-534 -700 0
-535 -541 0
-535 -542 0
-535 -543 0
-535 -544 0
-535 -545 0
-535 -547 0
-535 -548 0
-535 -550 0
-535 -691 0
-535 -692 0
-535 -694 0
-535 -695 0
-535 -696 0
-535 -697 0
-535 -698 0
-535 -700 0
-536 -541 0
-536 -542 0
-536 -543 0
-536 -544 0
-536 -545 0
-536 -546 0
-536 -548 0
-536 -549 0
-536 -550 0
-536 -691 0
-536 -692 0
-536 -693 0
-536 -695 0
-536 -696 0
-536 -697 0
-536 -698 0
-536 -699 0
-537 -541 0
-537 -542 0
-537 -543 0
-537 -544 0
-537 -545 0
-537 -546 0
-537 -547 0
-537 -549 0
-537 -550 0
-537 -692 0
-537 -693 0
-537 -694 0
-537 -695 0
-537 -696 0
-537 -697 0
-537 -698 0
-537 -699 0
-537 -700 0
-538 -541 0
-538 -543 0
-538 -544 0
-538 -546 0
-538 -547 0
-538 -548 0
-538 -549 0
-538 -550 0
-538 -691 0
-538 -693 0
-538 -694 0
-538 -696 0
-538 -697 0
-538 -698 0
-538 -699 0
-538 -700 0
-539 -541 0
-539 -542 0
-539 -543 0
-539 -544 0
-539 -545 0
-539 -546 0
-539 -547 0
-539 -548 0
-539 -549 0
-539 -691 0
-539 -692 0
-539 -693 0
-539 -695 0
-539 -696 0
-539 -697 0
-539 -698 0
-539 -699 0
-540 -542 0
-540 -543 0
-540 -544 0
-540 -545 0
-540 -546 0
-540 -547 0
-540 -548 0
-540 -549 0
-540 -550 0
-540 -692 0
-540 -693 0
-540 -694 0
-540 -695 0
-540 -696 0
-540 -697 0
-540 -698 0
-540 -699 0
-540 -700 0
-541 -551 0
-541 -553 0
-541 -554 0
-541 -556 0
-541 -557 0
-541 -558 0
-541 -559 0
-541 -560 0
-541 -701 0
-541 -703 0
-541 -704 0
-541 -706 0
-541 -707 0
-541 -708 0
-541 -709 0
-541 -710 0
-542 -551 0
-542 -552 0
-542 -554 0
-542 -555 0
-542 -556 0
-542 -557 0
-542 -558 0
-542 -559 0
-542 -560 0
-542 -701 0
-542 -702 0
-542 -703 0
-542 -704 0
-542 -705 0
-542 -707 0
-542 -708 0
-542 -709 0
-542 -710 0
-543 -551 0
-543 -552 0
-543 -553 0
-543 -555 0
-543 -556 0
-543 -557 0
-543 -558 0
-543 -559 0
-543 -560 0
-543 -701 0
-543 -702 0
-543 -703 0
-543 -704 0
-543 -705 0
-543 -706 0
-543 -708 0
-543 -709 0
-543 -710 0
-544 -552 0
-544 -553 0
-544 -554 0
-544 -555 0
-544 -556 0
-544 -557 0
-544 -558 0
-544 -559 0
-544 -560 0
-544 -701 0
-544 -702 0
-544 -703 0
-544 -704 0
-544 -705 0
-544 -706 0
-544 -707 0
-544 -709 0
-544 -710 0
-545 -551 0
-545 -552 0
-545 -553 0
-545 -554 0
-545 -555 0
-545 -557 0
-545 -558 0
-545 -560 0
-545 -701 0
-545 -702 0
-545 -704 0
-545 -705 0
-545 -706 0
-545 -707 0
-545 -708 0
-545 -710 0
-546 -551 0
-546 -552 0
-546 -553 0
-546 -554 0
-546 -555 0
-546 -556 0
-546 -558 0
-546 -559 0
-546 -560 0
-546 -701 0
-546 -702 0
-546 -703 0
-546 -705 0
-546 -706 0
-546 -707 0
-546 -708 0
-546 -709 0
-547 -551 0
-547 -552 0
-547 -553 0
-547 -554 0
-547 -555 0
-547 -556 0
-547 -557 0
-547 -559 0
-547 -560 0
-547 -702 0
-547 -703 0
-547 -704 0
-547 -705 0
-547 -706 0
-547 -707 0
-547 -708 0
-547 -709 0
-547 -710 0
-548 -551 0
-548 -553 0
-548 -554 0
-548 -556 0
-548 -557 0
-548 -558 0
-548 -559 0
-548 -560 0
-548 -701 0
-548 -703 0
-548 -704 0
-548 -706 0
-548 -707 0
-548 -708 0
-548 -709 0
-548 -710 0
-549 -551 0
-549 -552 0
-549 -553 0
-549 -554 0
-549 -555 0
-549 -556 0
-549 -557 0
-549 -558 0
-549 -559 0
-549 -701 0
-549 -702 0
-549 -703 0
-549 -705 0
-549 -706 0
-549 -707 0
-549 -708 0
-549 -709 0
-550 -552 0
-550 -553 0
-550 -554 0
-550 -555 0
-550 -556 0
-550 -557 0
-550 -558 0
-550 -559 0
-550 -560 0
-550 -702 0
-550 -703 0
-550 -704 0
-550 -705 0
-550 -706 0
-550 -707 0
-550 -708 0
-550 -709 0
-550 -710 0
-551 -561 0
-551 -563 0
-551 -564 0
-551 -566 0
-551 -567 0
-551 -568 0
-551 -569 0
-551 -570 0
-551 -711 0
-551 -713 0
-551 -714 0
-551 -716 0
-551 -717 0
-551 -718 0
-551 -719 0
-551 -720 0
-552 -561 0
-552 -562 0
-552 -564 0
-552 -565 0
-552 -566 0
-552 -567 0
-552 -568 0
-552 -569 0
-552 -570 0
-552 -711 0
-552 -712 0
-552 -713 0
-552 -714 0
-552 -715 0
-552 -717 0
-552 -718 0
-552 -719 0
-552 -720 0
-553 -561 0
-553 -562 0
-553 -563 0
-553 -565 0
-553 -566 0
-553 -567 0
-553 -568 0
-553 -569 0
-553 -570 0
-553 -711 0
-553 -712 0
-553 -713 0
-553 -714 0
-553 -715 0
-553 -716 0
-553 -718 0
-553 -719 0
-553 -720 0
-554 -562 0
-554 -563 0
-554 -564 0
-554 -565 0
-554 -566 0
-554 -567 0
-554 -568 0
-554 -569 0
-554 -570 0
-554 -711 0
-554 -712 0
-554 -713 0
-554 -714 0
-554 -715 0
-554 -716 0
-554 -717 0
-554 -719 0
-554 -720 0
-555 -561 0
-555 -562 0
-555 -563 0
-555 -564 0
-555 -565 0
-555 -567 0
-555 -568 0
-555 -570 0
-555 -711 0
-555 -712 0
-555 -714 0
-555 -715 0
-555 -716 0
-555 -717 0
-555 -718 0
-555 -720 0
-556 -561 0
-556 -562 0
-556 -563 0
-556 -564 0
-556 -565 0
-556 -566 0
-556 -568 0
-556 -569 0
-556 -570 0
-556 -711 0
-556 -712 0
-556 -713 0
-556 -715 0
-556 -716 0
-556 -717 0
-556 -718 0
-556 -719 0
-557 -561 0
-557 -562 0
-557 -563 0
-557 -564 0
-557 -565 0
-557 -566 0
-557 -567 0
-557 -569 0
-557 -570 0
-557 -712 0
-557 -713 0
-557 -714 0
-557 -715 0
-557 -716 0
-557 -717 0
-557 -718 0
-557 -719 0
-557 -720 0
-558 -561 0
-558 -563 0
-558 -564 0
-558 -566 0
-558 -567 0
-558 -568 0
-558 -569 0
-558 -570 0
-558 -711 0
-558 -713 0
-558 -714 0
-558 -716 0
-558 -717 0
-558 -718 0
-558 -719 0
-558 -720 0
-559 -561 0
-559 -562 0
-559 -563 0
-559 -564 0
-559 -565 0
-559 -566 0
-559 -567 0
-559 -568 0
-559 -569 0
-559 -711 0
-559 -712 0
-559 -713 0
-559 -715 0
-559 -716 0
-559 -717 0
-559 -718 0
-559 -719 0
-560 -562 0
-560 -563 0
-560 -564 0
-560 -565 0
-560 -566 0
-560 -567 0
-560 -568 0
-560 -569 0
-560 -570 0
-560 -712 0
-560 -713 0
-560 -714 0
-560 -715 0
-560 -716 0
-560 -717 0
-560 -718 0
-560 -719 0
-560 -720 0
-561 -571 0
-561 -573 0
-561 -574 0
-561 -576 0
-561 -577 0
-561 -578 0
-561 -579 0
-561 -580 0
-561 -721 0
-561 -723 0
-561 -724 0
-561 -726 0
-561 -727 0
-561 -728 0
-561 -729 0
-561 -730 0
-562 -571 0
-562 -572 0
-562 -574 0
-562 -575 0
-562 -576 0
-562 -577 0
-562 -578 0
-562 -579 0
-562 -580 0
-562 -721 0
-562 -722 0
-562 -723 0
-562 -724 0
-562 -725 0
-562 -727 0
-562 -728 0
-562 -729 0
-562 -730 0
-563 -571 0
-563 -572 0
-563 -573 0
-563 -575 0
-563 -576 0
-563 -577 0
-563 -578 0
-563 -579 0
-563 -580 0
-563 -721 0
-563 -722 0
-563 -723 0
-563 -724 0
-563 -725 0
-563 -726 0
-563 -728 0
-563 -729 0
-563 -730 0
-564 -572 0
-564 -573 0
-564 -574 0
-564 -575 0
-564 -576 0
-564 -577 0
-564 -578 0
-564 -579 0
-564 -580 0
-564 -721 0
-564 -722 0
-564 -723 0
-564 -724 0
-564 -725 0
-564 -726 0
-564 -727 0
-564 -729 0
-564 -730 0
-565 -571 0
-565 -572 0
-565 -573 0
-565 -574 0
-565 -575 0
-565 -577 0
-565 -578 0
-565 -580 0
-565 -721 0
-565 -722 0
-565 -724 0
-565 -725 0
-565 -726 0
-565 -727 0
-565 -728 0
-565 -730 0
-566 -571 0
-566 -572 0
-566 -573 0
-566 -574 0
-566 -575 0
-566 -576 0
-566 -578 0
-566 -579 0
-566 -580 0
-566 -721 0
-566 -722 0
-566 -723 0
-566 -725 0
-566 -726 0
-566 -727 0
-566 -728 0
-566 -729 0
-567 -571 0
-567 -572 0
-567 -573 0
-567 -574 0
-567 -575 0
-567 -576 0
-567 -577 0
-567 -579 0
-567 -580 0
-567 -722 0
-567 -723 0
-567 -724 0
-567 -725 0
-567 -726 0
-567 -727 0
-567 -728 0
-567 -729 0
-567 -730 0
-568 -571 0
-568 -573 0
-568 -574 0
-568 -576 0
-568 -577 0
-568 -578 0
-568 -579 0
-568 -580 0
-568 -721 0
-568 -723 0
-568 -724 0
-568 -726 0
-568 -727 0
-568 -728 0
-568 -729 0
-568 -730 0
-569 -571 0
-569 -572 0
-569 -573 0
-569 -574 0
-569 -575 0
-569 -576 0
-569 -577 0
-569 -578 0
-569 -579 0
-569 -721 0
-569 -722 0
-569 -723 0
-569 -725 0
-569 -726 0
-569 -727 0
-569 -728 0
-569 -729 0
-570 -572 0
-570 -573 0
-570 -574 0
-570 -575 0
-570 -576 0
-570 -577 0
-570 -578 0
-570 -579 0
-570 -580 0
-570 -722 0
-570 -723 0
-570 -724 0
-570 -725 0
-570 -726 0
-570 -727 0
-570 -728 0
-570 -729 0
-570 -730 0
-571 -581 0
-571 -583 0
-571 -584 0
-571 -586 0
-571 -587 0
-571 -588 0
-571 -589 0
-571 -590 0
-571 -731 0
-571 -733 0
-571 -734 0
-571 -736 0
-571 -737 0
-571 -738 0
-571 -739 0
-571 -740 0
-572 -581 0
-572 -582 0
-572 -584 0
-572 -585 0
-572 -586 0
-572 -587 0
-572 -588 0
-572 -589 0
-572 -590 0
-572 -731 0
-572 -732 0
-572 -733 0
-572 -734 0
-572 -735 0
-572 -737 0
-572 -738 0
-572 -739 0
-572 -740 0
-573 -581 0
-573 -582 0
-573 -583 0
-573 -585 0
-573 -586 0
-573 -587 0
-573 -588 0
-573 -589 0
-573 -590 0
-573 -731 0
-573 -732 0
-573 -733 0
-573 -734 0
-573 -735 0
-573 -736 0
-573 -738 0
-573 -739 0
-573 -740 0
-574 -582 0
-574 -583 0
-574 -584 0
-574 -585 0
-574 -586 0
-574 -587 0
-574 -588 0
-574 -589 0
-574 -590 0
-574 -731 0
-574 -732 0
-574 -733 0
-574 -734 0
-574 -735 0
-574 -736 0
-574 -737 0
-574 -739 0
-574 -740 0
-575 -581 0
-575 -582 0
-575 -583 0
-575 -584 0
-575 -585 0
-575 -587 0
-575 -588 0
-575 -590 0
-575 -731 0
-575 -732 0
-575 -734 0
-575 -735 0
-575 -736 0
-575 -737 0
-575 -738 0
-575 -740 0
-576 -581 0
-576 -582 0
-576 -583 0
-576 -584 0
-576 -585 0
-576 -586 0
-576 -588 0
-576 -589 0
-576 -590 0
-576 -731 0
-576 -732 0
-576 -733 0
-576 -735 0
-576 -736 0
-576 -737 0
-576 -738 0
-576 -739 0
-577 -581 0
-577 -582 0
-577 -583 0
-577 -584 0
-577 -585 0
-577 -586 0
-577 -587 0
-577 -589 0
-577 -590 0
-577 -732 0
-577 -733 0
-577 -734 0
-577 -735 0
-577 -736 0
-577 -737 0
-577 -738 0
-577 -739 0
-577 -740 0
-578 -581 0
-578 -583 0
-578 -584 0
-578 -586 0
-578 -587 0
-578 -588 0
-578 -589 0
-578 -590 0
-578 -731 0
-578 -733 0
-578 -734 0
-578 -736 0
-578 -737 0
-578 -738 0
-578 -739 0
-578 -740 0
-579 -581 0
-579 -582 0
-579 -583 0
-579 -584 0
-579 -585 0
-579 -586 0
-579 -587 0
-579 -588 0
-579 -589 0
-579 -731 0
-579 -732 0
-579 -733 0
-579 -735 0
-579 -736 0
-579 -737 0
-579 -738 0
-579 -739 0
-580 -582 0
-580 -583 0
-580 -584 0
-580 -585 0
-580 -586 0
-580 -587 0
-580 -588 0
-580 -589 0
-580 -590 0
-580 -732 0
-580 -733 0
-580 -734 0
-580 -735 0
-580 -736 0
-580 -737 0
-580 -738 0
-580 -739 0
-580 -740 0
-581 -591 0
-581 -593 0
-581 -594 0
-581 -596 0
-581 -597 0
-581 -598 0
-581 -599 0
-581 -600 0
-581 -741 0
-581 -743 0
-581 -744 0
-581 -746 0
-581 -747 0
-581 -748 0
-581 -749 0
-581 -750 0
-582 -591 0
-582 -592 0
-582 -594 0
-582 -595 0
-582 -596 0
-582 -597 0
-582 -598 0
-582 -599 0
-582 -600 0
-582 -741 0
-582 -742 0
-582 -743 0
-582 -744 0
-582 -745 0
-582 -747 0
-582 -748 0
-582 -749 0
-582 -750 0
-583 -591 0
-583 -592 0
-583 -593 0
-583 -595 0
-583 -596 0
-583 -597 0
-583 -598 0
-583 -599 0
-583 -600 0
-583 -741 0
-583 -742 0
-583 -743 0
-583 -744 0
-583 -745 0
-583 -746 0
-583 -748 0
-583 -749 0
-583 -750 0
-584 -592 0
-584 -593 0
-584 -594 0
-584 -595 0
-584 -596 0
-584 -597 0
-584 -598 0
-584 -599 0
-584 -600 0
-584 -741 0
-584 -742 0
-584 -743 0
-584 -744 0
-584 -745 0
-584 -746 0
-584 -747 0
-584 -749 0
-584 -750 0
-585 -591 0
-585 -592 0
-585 -593 0
-585 -594 0
-585 -595 0
-585 -597 0
-585 -598 0
-585 -600 0
-585 -741 0
-585 -742 0
-585 -744 0
-585 -745 0
-585 -746 0
-585 -747 0
-585 -748 0
-585 -750 0
-586 -591 0
-586 -592 0
-586 -593 0
-586 -594 0
-586 -595 0
-586 -596 0
-586 -598 0
-586 -599 0
-586 -600 0
-586 -741 0
-586 -742 0
-586 -743 0
-586 -745 0
-586 -746 0
-586 -747 0
-586 -748 0
-586 -749 0
-587 -591 0
-587 -592 0
-587 -593 0
-587 -594 0
-587 -595 0
-587 -596 0
-587 -597 0
-587 -599 0
-587 -600 0
-587 -742 0
-587 -743 0
-587 -744 0
-587 -745 0
-587 -746 0
-587 -747 0
-587 -748 0
-587 -749 0
-587 -750 0
-588 -591 0
-588 -593 0
-588 -594 0
-588 -596 0
-588 -597 0
-588 -598 0
-588 -599 0
-588 -600 0
-588 -741 0
-588 -743 0
-588 -744 0
-588 -746 0
-588 -747 0
-588 -748 0
-588 -749 0
-588 -750 0
-589 -591 0
-589 -592 0
-589 -593 0
-589 -594 0
-589 -595 0
-589 -596 0
-589 -597 0
-589 -598 0
-589 -599 0
-589 -741 0
-589 -742 0
-589 -743 0
-589 -745 0
-589 -746 0
-589 -747 0
-589 -748 0
-589 -749 0
-590 -592 0
-590 -593 0
-590 -594 0
-590 -595 0
-590 -596 0
-590 -597 0
-590 -598 0
-590 -599 0
-590 -600 0
-590 -742 0
-590 -743 0
-590 -744 0
-590 -745 0
-590 -746 0
-590 -747 0
-590 -748 0
-590 -749 0
-590 -750 0
-591 -601 0
-591 -603 0
-591 -604 0
-591 -606 0
-591 -607 0
-591 -608 0
-591 -609 0
-591 -610 0
-591 -751 0
-591 -753 0
-591 -754 0
-591 -756 0
-591 -757 0
-591 -758 0
-591 -759 0
-591 -760 0
-592 -601 0
-592 -602 0
-592 -604 0
-592 -605 0
-592 -606 0
-592 -607 0
-592 -608 0
-592 -609 0
-592 -610 0
-592 -751 0
-592 -752 0
-592 -753 0
-592 -754 0
-592 -755 0
-592 -757 0
-592 -758 0
-592 -759 0
-592 -760 0
-593 -601 0
-593 -602 0
-593 -603 0
-593 -605 0
-593 -606 0
-593 -607 0
-593 -608 0
-593 -609 0
-593 -610 0
-593 -751 0
-593 -752 0
-593 -753 0
-593 -754 0
-593 -755 0
-593 -756 0
-593 -758 0
-593 -759 0
-593 -760 0
-594 -602 0
-594 -603 0
-594 -604 0
-594 -605 0
-594 -606 0
-594 -607 0
-594 -608 0
-594 -609 0
-594 -610 0
-594 -751 0
-594 -752 0
-594 -753 0
-594 -754 0
-594 -755 0
-594 -756 0
-594 -757 0
-594 -759 0
-594 -760 0
-595 -601 0
-595 -602 0
-595 -603 0
-595 -604 0
-595 -605 0
-595 -607 0
-595 -608 0
-595 -610 0
-595 -751 0
-595 -752 0
-595 -754 0
-595 -755 0
-595 -756 0
-595 -757 0
-595 -758 0
-595 -760 0
-596 -601 0
-596 -602 0
-596 -603 0
-596 -604 0
-596 -605 0
-596 -606 0
-596 -608 0
-596 -609 0
-596 -610 0
-596 -751 0
-596 -752 0
-596 -753 0
-596 -755 0
-596 -756 0
-596 -757 0
-596 -758 0
-596 -759 0
-597 -601 0
-597 -602 0
-597 -603 0
-597 -604 0
-597 -605 0
-597 -606 0
-597 -607 0
-597 -609 0
-597 -610 0
-597 -752 0
-597 -753 0
-597 -754 0
-597 -755 0
-597 -756 0
-597 -757 0
-597 -758 0
-597 -759 0
-597 -760 0
-598 -601 0
-598 -603 0
-598 -604 0
-598 -606 0
-598 -607 0
-598 -608 0
-598 -609 0
-598 -610 0
-598 -751 0
-598 -753 0
-598 -754 0
-598 -756 0
-598 -757 0
-598 -758 0
-598 -759 0
-598 -760 0
-599 -601 0
-599 -602 0
-599 -603 0
-599 -604 0
-599 -605 0
-599 -606 0
-599 -607 0
-599 -608 0
-599 -609 0
-599 -751 0
-599 -752 0
-599 -753 0
-599 -755 0
-599 -756 0
-599 -757 0
-599 -758 0
-599 -759 0
-600 -602 0
-600 -603 0
-600 -604 0
-600 -605 0
-600 -606 0
-600 -607 0
-600 -608 0
-600 -609 0
-600 -610 0
-600 -752 0
-600 -753 0
-600 -754 0
-600 -755 0
-600 -756 0
-600 -757 0
-600 -758 0
-600 -759 0
-600 -760 0
-601 -611 0
-601 -613 0
-601 -614 0
-601 -616 0
-601 -617 0
-601 -618 0
-601 -619 0
-601 -620 0
-601 -761 0
-601 -763 0
-601 -764 0
-601 -766 0
-601 -767 0
-601 -768 0
-601 -769 0
-601 -770 0
-602 -611 0
-602 -612 0
-602 -614 0
-602 -615 0
-602 -616 0
-602 -617 0
-602 -618 0
-602 -619 0
-602 -620 0
-602 -761 0
-602 -762 0
-602 -763 0
-602 -764 0
-602 -765 0
-602 -767 0
-602 -768 0
-602 -769 0
-602 -770 0
-603 -611 0
-603 -612 0
-603 -613 0
-603 -615 0
-603 -616 0
-603 -617 0
-603 -618 0
-603 -619 0
-603 -620 0
-603 -761 0
-603 -762 0
-603 -763 0
-603 -764 0
-603 -765 0
-603 -766 0
-603 -768 0
-603 -769 0
-603 -770 0
-604 -612 0
-604 -613 0
-604 -614 0
-604 -615 0
-604 -616 0
-604 -617 0
-604 -618 0
-604 -619 0
-604 -620 0
-604 -761 0
-604 -762 0
-604 -763 0
-604 -764 0
-604 -765 0
-604 -766 0
-604 -767 0
-604 -769 0
-604 -770 0
-605 -611 0
-605 -612 0
-605 -613 0
-605 -614 0
-605 -615 0
-605 -617 0
-605 -618 0
-605 -620 0
-605 -761 0
-605 -762 0
-605 -764 0
-605 -765 0
-605 -766 0
-605 -767 0
-605 -768 0
-605 -770 0
-606 -611 0
-606 -612 0
-606 -613 0
-606 -614 0
-606 -615 0
-606 -616 0
-606 -618 0
-606 -619 0
-606 -620 0
-606 -761 0
-606 -762 0
-606 -763 0
-606 -765 0
-606 -766 0
-606 -767 0
-606 -768 0
-606 -769 0
-607 -611 0
-607 -612 0
-607 -613 0
-607 -614 0
-607 -615 0
-607 -616 0
-607 -617 0
-607 -619 0
-607 -620 0
-607 -762 0
-607 -763 0
-607 -764 0
-607 -765 0
-607 -766 0
-607 -767 0
-607 -768 0
-607 -769 0
-607 -770 0
-608 -611 0
-608 -613 0
-608 -614 0
-608 -616 0
-608 -617 0
-608 -618 0
-608 -619 0
-608 -620 0
-608 -761 0
-608 -763 0
-608 -764 0
-608 -766 0
-608 -767 0
-608 -768 0
-608 -769 0
-608 -770 0
-609 -611 0
-609 -612 0
-609 -613 0
-609 -614 0
-609 -615 0
-609 -616 0
-609 -617 0
-609 -618 0
-609 -619 0
-609 -761 0
-609 -762 0
-609 -763 0
-609 -765 0
-609 -766 0
-609 -767 0
-609 -768 0
-609 -769 0
-610 -612 0
-610 -613 0
-610 -614 0
-610 -615 0
-610 -616 0
-610 -617 0
-610 -618 0
-610 -619 0
-610 -620 0
-610 -762 0
-610 -763 0
-610 -764 0
-610 -765 0
-610 -766 0
-610 -767 0
-610 -768 0
-610 -769 0
-610 -770 0
-611 -621 0
-611 -623 0
-611 -624 0
-611 -626 0
-611 -627 0
-611 -628 0
-611 -629 0
-611 -630 0
-611 -771 0
-611 -773 0
-611 -774 0
-611 -776 0
-611 -777 0
-611 -778 0
-611 -779 0
-611 -780 0
-612 -621 0
-612 -622 0
-612 -624 0
-612 -625 0
-612 -626 0
-612 -627 0
-612 -628 0
-612 -629 0
-612 -630 0
-612 -771 0
-612 -772 0
-612 -773 0
-612 -774 0
-612 -775 0
-612 -777 0
-612 -778 0
-612 -779 0
-612 -780 0
-613 -621 0
-613 -622 0
-613 -623 0
-613 -625 0
-613 -626 0
-613 -627 0
-613 -628 0
-613 -629 0
-613 -630 0
-613 -771 0
-613 -772 0
-613 -773 0
-613 -774 0
-613 -775 0
-613 -776 0
-613 -778 0
-613 -779 0
-613 -780 0
-614 -622 0
-614 -623 0
-614 -624 0
-614 -625 0
-614 -626 0
-614 -627 0
-614 -628 0
-614 -629 0
-614 -630 0
-614 -771 0
-614 -772 0
-614 -773 0
-614 -774 0
-614 -775 0
-614 -776 0
-614 -777 0
-614 -779 0
-614 -780 0
-615 -621 0
-615 -622 0
-615 -623 0
-615 -624 0
-615 -625 0
-615 -627 0
-615 -628 0
-615 -630 0
-615 -771 0
-615 -772 0
-615 -774 0
-615 -775 0
-615 -776 0
-615 -777 0
-615 -778 0
-615 -780 0
-616 -621 0
-616 -622 0
-616 -623 0
-616 -624 0
-616 -625 0
-616 -626 0
-616 -628 0
-616 -629 0
-616 -630 0
-616 -771 0
-616 -772 0
-616 -773 0
-616 -775 0
-616 -776 0
-616 -777 0
-616 -778 0
-616 -779 0
-617 -621 0
-617 -622 0
-617 -623 0
-617 -624 0
-617 -625 0
-617 -626 0
-617 -627 0
-617 -629 0
-617 -630 0
-617 -772 0
-617 -773 0
-617 -774 0
-617 -775 0
-617 -776 0
-617 -777 0
-617 -778 0
-617 -779 0
-617 -780 0
-618 -621 0
-618 -623 0
-618 -624 0
-618 -626 0
-618 -627 0
-618 -628 0
-618 -629 0
-618 -630 0
-618 -771 0
-618 -773 0
-618 -774 0
-618 -776 0
-618 -777 0
-618 -778 0
-618 -779 0
-618 -780 0
-619 -621 0
-619 -622 0
-619 -623 0
-619 -624 0
-619 -625 0
-619 -626 0
-619 -627 0
-619 -628 0
-619 -629 0
-619 -771 0
-619 -772 0
-619 -773 0
-619 -775 0
-619 -776 0
-619 -777 0
-619 -778 0
-619 -779 0
-620 -622 0
-620 -623 0
-620 -624 0
-620 -625 0
-620 -626 0
-620 -627 0
-620 -628 0
-620 -629 0
-620 -630 0
-620 -772 0
-620 -773 0
-620 -774 0
-620 -775 0
-620 -776 0
-620 -777 0
-620 -778 0
-620 -779 0
-620 -780 0
-621 -631 0
-621 -633 0
-621 -634 0
-621 -636 0
-621 -637 0
-621 -638 0
-621 -639 0
-621 -640 0
-621 -781 0
-621 -783 0
-621 -784 0
-621 -786 0
-621 -787 0
-621 -788 0
-621 -789 0
-621 -790 0
-622 -631 0
-622 -632 0
-622 -634 0
-622 -635 0
-622 -636 0
-622 -637 0
-622 -638 0
-622 -639 0
-622 -640 0
-622 -781 0
-622 -782 0
-622 -783 0
-622 -784 0
-622 -785 0
-622 -787 0
-622 -788 0
-622 -789 0
-622 -790 0
-623 -631 0
-623 -632 0
-623 -633 0
-623 -635 0
-623 -636 0
-623 -637 0
-623 -638 0
-623 -639 0
-623 -640 0
-623 -781 0
-623 -782 0
-623 -783 0
-623 -784 0
-623 -785 0
-623 -786 0
-623 -788 0
-623 -789 0
-623 -790 0
-624 -632 0
-624 -633 0
-624 -634 0
-624 -635 0
-624 -636 0
-624 -637 0
-624 -638 0
-624 -639 0
-624 -640 0
-624 -781 0
-624 -782 0
-624 -783 0
-624 -784 0
-624 -785 0
-624 -786 0
-624 -787 0
-624 -789 0
-624 -790 0
-625 -631 0
-625 -632 0
-625 -633 0
-625 -634 0
-625 -635 0
-625 -637 0
-625 -638 0
-625 -640 0
-625 -781 0
-625 -782 0
-625 -784 0
-625 -785 0
-625 -786 0
-625 -787 0
-625 -788 0
-625 -790 0
-626 -631 0
-626 -632 0
-626 -633 0
-626 -634 0
-626 -635 0
-626 -636 0
-626 -638 0
-626 -639 0
-626 -640 0
-626 -781 0
-626 -782 0
-626 -783 0
-626 -785 0
-626 -786 0
-626 -787 0
-626 -788 0
-626 -789 0
-627 -631 0
-627 -632 0
-627 -633 0
-627 -634 0
-627 -635 0
-627 -636 0
-627 -637 0
-627 -639 0
-627 -640 0
-627 -782 0
-627 -783 0
-627 -784 0
-627 -785 0
-627 -786 0
-627 -787 0
-627 -788 0
-627 -789 0
-627 -790 0
-628 -631 0
-628 -633 0
-628 -634 0
-628 -636 0
-628 -637 0
-628 -638 0
-628 -639 0
-628 -640 0
-628 -781 0
-628 -783 0
-628 -784 0
-628 -786 0
-628 -787 0
-628 -788 0
-628 -789 0
-628 -790 0
-629 -631 0
-629 -632 0
-629 -633 0
-629 -634 0
-629 -635 0
-629 -636 0
-629 -637 0
-629 -638 0
-629 -639 0
-629 -781 0
-629 -782 0
-629 -783 0
-629 -785 0
-629 -786 0
-629 -787 0
-629 -788 0
-629 -789 0
-630 -632 0
-630 -633 0
-630 -634 0
-630 -635 0
-630 -636 0
-630 -637 0
-630 -638 0
-630 -639 0
-630 -640 0
-630 -782 0
-630 -783 0
-630 -784 0
-630 -785 0
-630 -786 0
-630 -787 0
-630 -788 0
-630 -789 0
-630 -790 0
-631 -791 0
-631 -793 0
-631 -794 0
-631 -796 0
-631 -797 0
-631 -798 0
-631 -799 0
-631 -800 0
-632 -791 0
-632 -792 0
-632 -793 0
-632 -794 0
-632 -795 0
-632 -797 0
-632 -798 0
-632 -799 0
-632 -800 0
-633 -791 0
-633 -792 0
-633 -793 0
-633 -794 0
-633 -795 0
-633 -796 0
-633 -798 0
-633 -799 0
-633 -800 0
-634 -791 0
-634 -792 0
-634 -793 0
-634 -794 0
-634 -795 0
-634 -796 0
-634 -797 0
-634 -799 0
-634 -800 0
-635 -791 0
-635 -792 0
-635 -794 0
-635 -795 0
-635 -796 0
-635 -797 0
-635 -798 0
-635 -800 0
-636 -791 0
-636 -792 0
-636 -793 0
-636 -795 0
-636 -796 0
-636 -797 0
-636 -798 0
-636 -799 0
-637 -792 0
-637 -793 0
-637 -794 0
-637 -795 0
-637 -796 0
-637 -797 0
-637 -798 0
-637 -799 0
-637 -800 0
-638 -791 0
-638 -793 0
-638 -794 0
-638 -796 0
-638 -797 0
-638 -798 0
-638 -799 0
-638 -800 0
-639 -791 0
-639 -792 0
-639 -793 0
-639 -795 0
-639 -796 0
-639 -797 0
-639 -798 0
-639 -799 0
-640 -792 0
-640 -793 0
-640 -794 0
-640 -795 0
-640 -796 0
-640 -797 0
-640 -798 0
-640 -799 0
-640 -800 0
-641 -651 0
-641 -653 0
-641 -654 0
-641 -656 0
-641 -657 0
-641 -658 0
-641 -659 0
-641 -660 0
-641 -801 0
-641 -803 0
-641 -804 0
-641 -806 0
-641 -807 0
-641 -808 0
-641 -809 0
-641 -810 0
-642 -651 0
-642 -652 0
-642 -654 0
-642 -655 0
-642 -656 0
-642 -657 0
-642 -658 0
-642 -659 0
-642 -660 0
-642 -801 0
-642 -802 0
-642 -803 0
-642 -804 0
-642 -805 0
-642 -807 0
-642 -808 0
-642 -809 0
-642 -810 0
-643 -651 0
-643 -652 0
-643 -653 0
-643 -655 0
-643 -656 0
-643 -657 0
-643 -658 0
-643 -659 0
-643 -660 0
-643 -801 0
-643 -802 0
-643 -803 0
-643 -804 0
-643 -805 0
-643 -806 0
-643 -808 0
-643 -809 0
-643 -810 0
-644 -652 0
-644 -653 0
-644 -654 0
-644 -655 0
-644 -656 0
-644 -657 0
-644 -658 0
-644 -659 0
-644 -660 0
-644 -801 0
-644 -802 0
-644 -803 0
-644 -804 0
-644 -805 0
-644 -806 0
-644 -807 0
-644 -809 0
-644 -810 0
-645 -651 0
-645 -652 0
-645 -653 0
-645 -654 0
-645 -655 0
-645 -657 0
-645 -658 0
-645 -660 0
-645 -801 0
-645 -802 0
-645 -804 0
-645 -805 0
-645 -806 0
-645 -807 0
-645 -808 0
-645 -810 0
-646 -651 0
-646 -652 0
-646 -653 0
-646 -654 0
-646 -655 0
-646 -656 0
-646 -658 0
-646 -659 0
-646 -660 0
-646 -801 0
-646 -802 0
-646 -803 0
-646 -805 0
-646 -806 0
-646 -807 0
-646 -808 0
-646 -809 0
-647 -651 0
-647 -652 0
-647 -653 0
-647 -654 0
-647 -655 0
-647 -656 0
-647 -657 0
-647 -659 0
-647 -660 0
-647 -802 0
-647 -803 0
-647 -804 0
-647 -805 0
-647 -806 0
-647 -807 0
-647 -808 0
-647 -809 0
-647 -810 0
-648 -651 0
-648 -653 0
-648 -654 0
-648 -656 0
-648 -657 0
-648 -658 0
-648 -659 0
-648 -660 0
-648 -801 0
-648 -803 0
-648 -804 0
-648 -806 0
-648 -807 0
-648 -808 0
-648 -809 0
-648 -810 0
-649 -651 0
-649 -652 0
-649 -653 0
-649 -654 0
-649 -655 0
-649 -656 0
-649 -657 0
-649 -658 0
-649 -659 0
-649 -801 0
-649 -802 0
-649 -803 0
-649 -805 0
-649 -806 0
-649 -807 0
-649 -808 0
-649 -809 0
-650 -652 0
-650 -653 0
-650 -654 0
-650 -655 0
-650 -656 0
-650 -657 0
-650 -658 0
-650 -659 0
-650 -660 0
-650 -802 0
-650 -803 0
-650 -804 0
-650 -805 0
-650 -806 0
-650 -807 0
-650 -808 0
-650 -809 0
-650 -810 0
-651 -661 0
-651 -663 0
-651 -664 0
-651 -666 0
-651 -667 0
-651 -668 0
-651 -669 0
-651 -670 0
-651 -811 0
-651 -813 0
-651 -814 0
-651 -816 0
-651 -817 0
-651 -818 0
-651 -819 0
-651 -820 0
-652 -661 0
-652 -662 0
-652 -664 0
-652 -665 0
-652 -666 0
-652 -667 0
-652 -668 0
-652 -669 0
-652 -670 0
-652 -811 0
-652 -812 0
-652 -813 0
-652 -814 0
-652 -815 0
-652 -817 0
-652 -818 0
-652 -819 0
-652 -820 0
-653 -661 0
-653 -662 0
-653 -663 0
-653 -665 0
-653 -666 0
-653 -667 0
-653 -668 0
-653 -669 0
-653 -670 0
-653 -811 0
-653 -812 0
-653 -813 0
-653 -814 0
-653 -815 0
-653 -816 0
-653 -818 0
-653 -819 0
-653 -820 0
-654 -662 0
-654 -663 0
-654 -664 0
-654 -665 0
-654 -666 0
-654 -667 0
-654 -668 0
-654 -669 0
-654 -670 0
-654 -811 0
-654 -812 0
-654 -813 0
-654 -814 0
-654 -815 0
-654 -816 0
-654 -817 0
-654 -819 0
-654 -820 0
-655 -661 0
-655 -662 0
-655 -663 0
-655 -664 0
-655 -665 0
-655 -667 0
-655 -668 0
-655 -670 0
-655 -811 0
-655 -812 0
-655 -814 0
-655 -815 0
-655 -816 0
-655 -817 0
-655 -818 0
-655 -820 0
-656 -661 0
-656 -662 0
-656 -663 0
-656 -664 0
-656 -665 0
-656 -666 0
-656 -668 0
-656 -669 0
-656 -670 0
-656 -811 0
-656 -812 0
-656 -813 0
-656 -815 0
-656 -816 0
-656 -817 0
-656 -818 0
-656 -819 0
-657 -661 0
-657 -662 0
-657 -663 0
-657 -664 0
-657 -665 0
-657 -666 0
-657 -667 0
-657 -669 0
-657 -670 0
-657 -812 0
-657 -813 0
-657 -814 0
-657 -815 0
-657 -816 0
-657 -817 0
-657 -818 0
-657 -819 0
-657 -820 0
-658 -661 0
-658 -663 0
-658 -664 0
-658 -666 0
-658 -667 0
-658 -668 0
-658 -669 0
-658 -670 0
-658 -811 0
-658 -813 0
-658 -814 0
-658 -816 0
-658 -817 0
-658 -818 0
-658 -819 0
-658 -820 0
-659 -661 0
-659 -662 0
-659 -663 0
-659 -664 0
-659 -665 0
-659 -666 0
-659 -667 0
-659 -668 0
-659 -669 0
-659 -811 0
-659 -812 0
-659 -813 0
-659 -815 0
-659 -816 0
-659 -817 0
-659 -818 0
-659 -819 0
-660 -662 0
-660 -663 0
-660 -664 0
-660 -665 0
-660 -666 0
-660 -667 0
-660 -668 0
-660 -669 0
-660 -670 0
-660 -812 0
-660 -813 0
-660 -814 0
-660 -815 0
-660 -816 0
-660 -817 0
-660 -818 0
-660 -819 0
-660 -820 0
-661 -671 0
-661 -673 0
-661 -674 0
-661 -676 0
-661 -677 0
-661 -678 0
-661 -679 0
-661 -680 0
-661 -821 0
-661 -823 0
-661 -824 0
-661 -826 0
-661 -827 0
-661 -828 0
-661 -829 0
-661 -830 0
-662 -671 0
-662 -672 0
-662 -674 0
-662 -675 0
-662 -676 0
-662 -677 0
-662 -678 0
-662 -679 0
-662 -680 0
-662 -821 0
-662 -822 0
-662 -823 0
-662 -824 0
-662 -825 0
-662 -827 0
-662 -828 0
-662 -829 0
-662 -830 0
-663 -671 0
-663 -672 0
-663 -673 0
-663 -675 0
-663 -676 0
-663 -677 0
-663 -678 0
-663 -679 0
-663 -680 0
-663 -821 0
-663 -822 0
-663 -823 0
-663 -824 0
-663 -825 0
-663 -826 0
-663 -828 0
-663 -829 0
-663 -830 0
-664 -672 0
-664 -673 0
-664 -674 0
-664 -675 0
-664 -676 0
-664 -677 0
-664 -678 0
-664 -679 0
-664 -680 0
-664 -821 0
-664 -822 0
-664 -823 0
-664 -824 0
-664 -825 0
-664 -826 0
-664 -827 0
-664 -829 0
-664 -830 0
-665 -671 0
-665 -672 0
-665 -673 0
-665 -674 0
-665 -675 0
-665 -677 0
-665 -678 0
-665 -680 0
-665 -821 0
-665 -822 0
-665 -824 0
-665 -825 0
-665 -826 0
-665 -827 0
-665 -828 0
-665 -830 0
-666 -671 0
-666 -672 0
-666 -673 0
-666 -674 0
-666 -675 0
-666 -676 0
-666 -678 0
-666 -679 0
-666 -680 0
-666 -821 0
-666 -822 0
-666 -823 0
-666 -825 0
-666 -826 0
-666 -827 0
-666 -828 0
-666 -829 0
-667 -671 0
-667 -672 0
-667 -673 0
-667 -674 0
-667 -675 0
-667 -676 0
-667 -677 0
-667 -679 0
-667 -680 0
-667 -822 0
-667 -823 0
-667 -824 0
-667 -825 0
-667 -826 0
-667 -827 0
-667 -828 0
-667 -829 0
-667 -830 0
-668 -671 0
-668 -673 0
-668 -674 0
-668 -676 0
-668 -677 0
-668 -678 0
-668 -679 0
-668 -680 0
-668 -821 0
-668 -823 0
-668 -824 0
-668 -826 0
-668 -827 0
-668 -828 0
-668 -829 0
-668 -830 0
-669 -671 0
-669 -672 0
-669 -673 0
-669 -674 0
-669 -675 0
-669 -676 0
-669 -677 0
-669 -678 0
-669 -679 0
-669 -821 0
-669 -822 0
-669 -823 0
-669 -825 0
-669 -826 0
-669 -827 0
-669 -828 0
-669 -829 0
-670 -672 0
-670 -673 0
-670 -674 0
-670 -675 0
-670 -676 0
-670 -677 0
-670 -678 0
-670 -679 0
-670 -680 0
-670 -822 0
-670 -823 0
-670 -824 0
-670 -825 0
-670 -826 0
-670 -827 0
-670 -828 0
-670 -829 0
-670 -830 0
-671 -681 0
-671 -683 0
-671 -684 0
-671 -686 0
-671 -687 0
-671 -688 0
-671 -689 0
-671 -690 0
-671 -831 0
-671 -833 0
-671 -834 0
-671 -836 0
-671 -837 0
-671 -838 0
-671 -839 0
-671 -840 0
-672 -681 0
-672 -682 0
-672 -684 0
-672 -685 0
-672 -686 0
-672 -687 0
-672 -688 0
-672 -689 0
-672 -690 0
-672 -831 0
-672 -832 0
-672 -833 0
-672 -834 0
-672 -835 0
-672 -837 0
-672 -838 0
-672 -839 0
-672 -840 0
-673 -681 0
-673 -682 0
-673 -683 0
-673 -685 0
-673 -686 0
-673 -687 0
-673 -688 0
-673 -689 0
-673 -690 0
-673 -831 0
-673 -832 0
-673 -833 0
-673 -834 0
-673 -835 0
-673 -836 0
-673 -838 0
-673 -839 0
-673 -840 0
-674 -682 0
-674 -683 0
-674 -684 0
-674 -685 0
-674 -686 0
-674 -687 0
-674 -688 0
-674 -689 0
-674 -690 0
-674 -831 0
-674 -832 0
-674 -833 0
-674 -834 0
-674 -835 0
-674 -836 0
-674 -837 0
-674 -839 0
-674 -840 0
-675 -681 0
-675 -682 0
-675 -683 0
-675 -684 0
-675 -685 0
-675 -687 0
-675 -688 0
-675 -690 0
-675 -831 0
-675 -832 0
-675 -834 0
-675 -835 0
-675 -836 0
-675 -837 0
-675 -838 0
-675 -840 0
-676 -681 0
-676 -682 0
-676 -683 0
-676 -684 0
-676 -685 0
-676 -686 0
-676 -688 0
-676 -689 0
-676 -690 0
-676 -831 0
-676 -832 0
-676 -833 0
-676 -835 0
-676 -836 0
-676 -837 0
-676 -838 0
-676 -839 0
-677 -681 0
-677 -682 0
-677 -683 0
-677 -684 0
-677 -685 0
-677 -686 0
-677 -687 0
-677 -689 0
-677 -690 0
-677 -832 0
-677 -833 0
-677 -834 0
-677 -835 0
-677 -836 0
-677 -837 0
-677 -838 0
-677 -839 0
-677 -840 0
-678 -681 0
-678 -683 0
-678 -684 0
-678 -686 0
-678 -687 0
-678 -688 0
-678 -689 0
-678 -690 0
-678 -831 0
-678 -833 0
-678 -834 0
-678 -836 0
-678 -837 0
-678 -838 0
-678 -839 0
-678 -840 0
-679 -681 0
-679 -682 0
-679 -683 0
-679 -684 0
-679 -685 0
-679 -686 0
-679 -687 0
-679 -688 0
-679 -689 0
-679 -831 0
-679 -832 0
-679 -833 0
-679 -835 0
-679 -836 0
-679 -837 0
-679 -838 0
-679 -839 0
-680 -682 0
-680 -683 0
-680 -684 0
-680 -685 0
-680 -686 0
-680 -687 0
-680 -688 0
-680 -689 0
-680 -690 0
-680 -832 0
-680 -833 0
-680 -834 0
-680 -835 0
-680 -836 0
-680 -837 0
-680 -838 0
-680 -839 0
-680 -840 0
-681 -691 0
-681 -693 0
-681 -694 0
-681 -696 0
-681 -697 0
-681 -698 0
-681 -699 0
-681 -700 0
-681 -841 0
-681 -843 0
-681 -844 0
-681 -846 0
-681 -847 0
-681 -848 0
-681 -849 0
-681 -850 0
-682 -691 0
-682 -692 0
-682 -694 0
-682 -695 0
-682 -696 0
-682 -697 0
-682 -698 0
-682 -699 0
-682 -700 0
-682 -841 0
-682 -842 0
-682 -843 0
-682 -844 0
-682 -845 0
-682 -847 0
-682 -848 0
-682 -849 0
-682 -850 0
-683 -691 0
-683 -692 0
-683 -693 0
-683 -695 0
-683 -696 0
-683 -697 0
-683 -698 0
-683 -699 0
-683 -700 0
-683 -841 0
-683 -842 0
-683 -843 0
-683 -844 0
-683 -845 0
-683 -846 0
-683 -848 0
-683 -849 0
-683 -850 0
-684 -692 0
-684 -693 0
-684 -694 0
-684 -695 0
-684 -696 0
-684 -697 0
-684 -698 0
-684 -699 0
-684 -700 0
-684 -841 0
-684 -842 0
-684 -843 0
-684 -844 0
-684 -845 0
-684 -846 0
-684 -847 0
-684 -849 0
-684 -850 0
-685 -691 0
-685 -692 0
-685 -693 0
-685 -694 0
-685 -695 0
-685 -697 0
-685 -698 0
-685 -700 0
-685 -841 0
-685 -842 0
-685 -844 0
-685 -845 0
-685 -846 0
-685 -847 0
-685 -848 0
-685 -850 0
-686 -691 0
-686 -692 0
-686 -693 0
-686 -694 0
-686 -695 0
-686 -696 0
-686 -698 0
-686 -699 0
-686 -700 0
-686 -841 0
-686 -842 0
-686 -843 0
-686 -845 0
-686 -846 0
-686 -847 0
-686 -848 0
-686 -849 0
-687 -691 0
-687 -692 0
-687 -693 0
-687 -694 0
-687 -695 0
-687 -696 0
-687 -697 0
-687 -699 0
-687 -700 0
-687 -842 0
-687 -843 0
-687 -844 0
-687 -845 0
-687 -846 0
-687 -847 0
-687 -848 0
-687 -849 0
-687 -850 0
-688 -691 0
-688 -693 0
-688 -694 0
-688 -696 0
-688 -697 0
-688 -698 0
-688 -699 0
-688 -700 0
-688 -841 0
-688 -843 0
-688 -844 0
-688 -846 0
-688 -847 0
-688 -848 0
-688 -849 0
-688 -850 0
-689 -691 0
-689 -692 0
-689 -693 0
-689 -694 0
-689 -695 0
-689 -696 0
-689 -697 0
-689 -698 0
-689 -699 0
-689 -841 0
-689 -842 0
-689 -843 0
-689 -845 0
-689 -846 0
-689 -847 0
-689 -848 0
-689 -849 0
-690 -692 0
-690 -693 0
-690 -694 0
-690 -695 0
-690 -696 0
-690 -697 0
-690 -698 0
-690 -699 0
-690 -700 0
-690 -842 0
-690 -843 0
-690 -844 0
-690 -845 0
-690 -846 0
-690 -847 0
-690 -848 0
-690 -849 0
-690 -850 0
-691 -701 0
-691 -703 0
-691 -704 0
-691 -706 0
-691 -707 0
-691 -708 0
-691 -709 0
-691 -710 0
-691 -851 0
-691 -853 0
-691 -854 0
-691 -856 0
-691 -857 0
-691 -858 0
-691 -859 0
-691 -860 0
-692 -701 0
-692 -702 0
-692 -704 0
-692 -705 0
-692 -706 0
-692 -707 0
-692 -708 0
-692 -709 0
-692 -710 0
-692 -851 0
-692 -852 0
-692 -853 0
-692 -854 0
-692 -855 0
-692 -857 0
-692 -858 0
-692 -859 0
-692 -860 0
-693 -701 0
-693 -702 0
-693 -703 0
-693 -705 0
-693 -706 0
-693 -707 0
-693 -708 0
-693 -709 0
-693 -710 0
-693 -851 0
-693 -852 0
-693 -853 0
-693 -854 0
-693 -855 0
-693 -856 0
-693 -858 0
-693 -859 0
-693 -860 0
-694 -702 0
-694 -703 0
-694 -704 0
-694 -705 0
-694 -706 0
-694 -707 0
-694 -708 0
-694 -709 0
-694 -710 0
-694 -851 0
-694 -852 0
-694 -853 0
-694 -854 0
-694 -855 0
-694 -856 0
-694 -857 0
-694 -859 0
-694 -860 0
-695 -701 0
-695 -702 0
-695 -703 0
-695 -704 0
-695 -705 0
-695 -707 0
-695 -708 0
-695 -710 0
-695 -851 0
-695 -852 0
-695 -854 0
-695 -855 0
-695 -856 0
-695 -857 0
-695 -858 0
-695 -860 0
-696 -701 0
-696 -702 0
-696 -703 0
-696 -704 0
-696 -705 0
-696 -706 0
-696 -708 0
-696 -709 0
-696 -710 0
-696 -851 0
-696 -852 0
-696 -853 0
-696 -855 0
-696 -856 0
-696 -857 0
-696 -858 0
-696 -859 0
-697 -701 0
-697 -702 0
-697 -703 0
-697 -704 0
-697 -705 0
-697 -706 0
-697 -707 0
-697 -709 0
-697 -710 0
-697 -852 0
-697 -853 0
-697 -854 0
-697 -855 0
-697 -856 0
-697 -857 0
-697 -858 0
-697 -859 0
-697 -860 0
-698 -701 0
-698 -703 0
-698 -704 0
-698 -706 0
-698 -707 0
-698 -708 0
-698 -709 0
-698 -710 0
-698 -851 0
-698 -853 0
-698 -854 0
-698 -856 0
-698 -857 0
-698 -858 0
-698 -859 0
-698 -860 0
-699 -701 0
-699 -702 0
-699 -703 0
-699 -704 0
-699 -705 0
-699 -706 0
-699 -707 0
-699 -708 0
-699 -709 0
-699 -851 0
-699 -852 0
-699 -853 0
-699 -855 0
-699 -856 0
-699 -857 0
-699 -858 0
-699 -859 0
-700 -702 0
-700 -703 0
-700 -704 0
-700 -705 0
-700 -706 0
-700 -707 0
-700 -708 0
-700 -709 0
-700 -710 0
-700 -852 0
-700 -853 0
-700 -854 0
-700 -855 0
-700 -856 0
-700 -857 0
-700 -858 0
-700 -859 0
-700 -860 0
-701 -711 0
-701 -713 0
-701 -714 0
-701 -716 0
-701 -717 0
-701 -718 0
-701 -719 0
-701 -720 0
-701 -861 0
-701 -863 0
-701 -864 0
-701 -866 0
-701 -867 0
-701 -868 0
-701 -869 0
-701 -870 0
-702 -711 0
-702 -712 0
-702 -714 0
-702 -715 0
-702 -716 0
-702 -717 0
-702 -718 0
-702 -719 0
-702 -720 0
-702 -861 0
-702 -862 0
-702 -863 0
-702 -864 0
-702 -865 0
-702 -867 0
-702 -868 0
-702 -869 0
-702 -870 0
-703 -711 0
-703 -712 0
-703 -713 0
-703 -715 0
-703 -716 0
-703 -717 0
-703 -718 0
-703 -719 0
-703 -720 0
-703 -861 0
-703 -862 0
-703 -863 0
-703 -864 0
-703 -865 0
-703 -866 0
-703 -868 0
-703 -869 0
-703 -870 0
-704 -712 0
-704 -713 0
-704 -714 0
-704 -715 0
-704 -716 0
-704 -717 0
-704 -718 0
-704 -719 0
-704 -720 0
-704 -861 0
-704 -862 0
-704 -863 0
-704 -864 0
-704 -865 0
-704 -866 0
-704 -867 0
-704 -869 0
-704 -870 0
-705 -711 0
-705 -712 0
-705 -713 0
-705 -714 0
-705 -715 0
-705 -717 0
-705 -718 0
-705 -720 0
-705 -861 0
-705 -862 0
-705 -864 0
-705 -865 0
-705 -866 0
-705 -867 0
-705 -868 0
-705 -870 0
-706 -711 0
-706 -712 0
-706 -713 0
-706 -714 0
-706 -715 0
-706 -716 0
-706 -718 0
-706 -719 0
-706 -720 0
-706 -861 0
-706 -862 0
-706 -863 0
-706 -865 0
-706 -866 0
-706 -867 0
-706 -868 0
-706 -869 0
-707 -711 0
-707 -712 0
-707 -713 0
-707 -714 0
-707 -715 0
-707 -716 0
-707 -717 0
-707 -719 0
-707 -720 0
-707 -862 0
-707 -863 0
-707 -864 0
-707 -865 0
-707 -866 0
-707 -867 0
-707 -868 0
-707 -869 0
-707 -870 0
-708 -711 0
-708 -713 0
-708 -714 0
-708 -716 0
-708 -717 0
-708 -718 0
-708 -719 0
-708 -720 0
-708 -861 0
-708 -863 0
-708 -864 0
-708 -866 0
-708 -867 0
-708 -868 0
-708 -869 0
-708 -870 0
-709 -711 0
-709 -712 0
-709 -713 0
-709 -714 0
-709 -715 0
-709 -716 0
-709 -717 0
-709 -718 0
-709 -719 0
-709 -861 0
-709 -862 0
-709 -863 0
-709 -865 0
-709 -866 0
-709 -867 0
-709 -868 0
-709 -869 0
-710 -712 0
-710 -713 0
-710 -714 0
-710 -715 0
-710 -716 0
-710 -717 0
-710 -718 0
-710 -719 0
-710 -720 0
-710 -862 0
-710 -863 0
-710 -864 0
-710 -865 0
-710 -866 0
-710 -867 0
-710 -868 0
-710 -869 0
-710 -870 0
-711 -721 0
-711 -723 0
-711 -724 0
-711 -726 0
-711 -727 0
-711 -728 0
-711 -729 0
-711 -730 0
-711 -871 0
-711 -873 0
-711 -874 0
-711 -876 0
-711 -877 0
-711 -878 0
-711 -879 0
-711 -880 0
-712 -721 0
-712 -722 0
-712 -724 0
-712 -725 0
-712 -726 0
-712 -727 0
-712 -728 0
-712 -729 0
-712 -730 0
-712 -871 0
-712 -872 0
-712 -873 0
-712 -874 0
-712 -875 0
-712 -877 0
-712 -878 0
-712 -879 0
-712 -880 0
-713 -721 0
-713 -722 0
-713 -723 0
-713 -725 0
-713 -726 0
-713 -727 0
-713 -728 0
-713 -729 0
-713 -730 0
-713 -871 0
-713 -872 0
-713 -873 0
-713 -874 0
-713 -875 0
-713 -876 0
-713 -878 0
-713 -879 0
-713 -880 0
-714 -722 0
-714 -723 0
-714 -724 0
-714 -725 0
-714 -726 0
-714 -727 0
-714 -728 0
-714 -729 0
-714 -730 0
-714 -871 0
-714 -872 0
-714 -873 0
-714 -874 0
-714 -875 0
-714 -876 0
-714 -877 0
-714 -879 0
-714 -880 0
-715 -721 0
-715 -722 0
-715 -723 0
-715 -724 0
-715 -725 0
-715 -727 0
-715 -728 0
-715 -730 0
-715 -871 0
-715 -872 0
-715 -874 0
-715 -875 0
-715 -876 0
-715 -877 0
-715 -878 0
-715 -880 0
-716 -721 0
-716 -722 0
-716 -723 0
-716 -724 0
-716 -725 0
-716 -726 0
-716 -728 0
-716 -729 0
-716 -730 0
-716 -871 0
-716 -872 0
-716 -873 0
-716 -875 0
-716 -876 0
-716 -877 0
-716 -878 0
-716 -879 0
-717 -721 0
-717 -722 0
-717 -723 0
-717 -724 0
-717 -725 0
-717 -726 0
-717 -727 0
-717 -729 0
-717 -730 0
-717 -872 0
-717 -873 0
-717 -874 0
-717 -875 0
-717 -876 0
-717 -877 0
-717 -878 0
-717 -879 0
-717 -880 0
-718 -721 0
-718 -723 0
-718 -724 0
-718 -726 0
-718 -727 0
-718 -728 0
-718 -729 0
-718 -730 0
-718 -871 0
-718 -873 0
-718 -874 0
-718 -876 0
-718 -877 0
-718 -878 0
-718 -879 0
-718 -880 0
-719 -721 0
-719 -722 0
-719 -723 0
-719 -724 0
-719 -725 0
-719 -726 0
-719 -727 0
-719 -728 0
-719 -729 0
-719 -871 0
-719 -872 0
-719 -873 0
-719 -875 0
-719 -876 0
-719 -877 0
-719 -878 0
-719 -879 0
-720 -722 0
-720 -723 0
-720 -724 0
-720 -725 0
-720 -726 0
-720 -727 0
-720 -728 0
-720 -729 0
-720 -730 0
-720 -872 0
-720 -873 0
-720 -874 0
-720 -875 0
-720 -876 0
-720 -877 0
-720 -878 0
-720 -879 0
-720 -880 0
-721 -731 0
-721 -733 0
-721 -734 0
-721 -736 0
-721 -737 0
-721 -738 0
-721 -739 0
-721 -740 0
-721 -881 0
-721 -883 0
-721 -884 0
-721 -886 0
-721 -887 0
-721 -888 0
-721 -889 0
-721 -890 0
-722 -731 0
-722 -732 0
-722 -734 0
-722 -735 0
-722 -736 0
-722 -737 0
-722 -738 0
-722 -739 0
-722 -740 0
-722 -881 0
-722 -882 0
-722 -883 0
-722 -884 0
-722 -885 0
-722 -887 0
-722 -888 0
-722 -889 0
-722 -890 0
-723 -731 0
-723 -732 0
-723 -733 0
-723 -735 0
-723 -736 0
-723 -737 0
-723 -738 0
-723 -739 0
-723 -740 0
-723 -881 0
-723 -882 0
-723 -883 0
-723 -884 0
-723 -885 0
-723 -886 0
-723 -888 0
-723 -889 0
-723 -890 0
-724 -732 0
-724 -733 0
-724 -734 0
-724 -735 0
-724 -736 0
-724 -737 0
-724 -738 0
-724 -739 0
-724 -740 0
-724 -881 0
-724 -882 0
-724 -883 0
-724 -884 0
-724 -885 0
-724 -886 0
-724 -887 0
-724 -889 0
-724 -890 0
-725 -731 0
-725 -732 0
-725 -733 0
-725 -734 0
-725 -735 0
-725 -737 0
-725 -738 0
-725 -740 0
-725 -881 0
-725 -882 0
-725 -884 0
-725 -885 0
-725 -886 0
-725 -887 0
-725 -888 0
-725 -890 0
-726 -731 0
-726 -732 0
-726 -733 0
-726 -734 0
-726 -735 0
-726 -736 0
-726 -738 0
-726 -739 0
-726 -740 0
-726 -881 0
-726 -882 0
-726 -883 0
-726 -885 0
-726 -886 0
-726 -887 0
-726 -888 0
-726 -889 0
-727 -731 0
-727 -732 0
-727 -733 0
-727 -734 0
-727 -735 0
-727 -736 0
-727 -737 0
-727 -739 0
-727 -740 0
-727 -882 0
-727 -883 0
-727 -884 0
-727 -885 0
-727 -886 0
-727 -887 0
-727 -888 0
-727 -889 0
-727 -890 0
-728 -731 0
-728 -733 0
-728 -734 0
-728 -736 0
-728 -737 0
-728 -738 0
-728 -739 0
-728 -740 0
-728 -881 0
-728 -883 0
-728 -884 0
-728 -886 0
-728 -887 0
-728 -888 0
-728 -889 0
-728 -890 0
-729 -731 0
-729 -732 0
-729 -733 0
-729 -734 0
-729 -735 0
-729 -736 0
-729 -737 0
-729 -738 0
-729 -739 0
-729 -881 0
-729 -882 0
-729 -883 0
-729 -885 0
-729 -886 0
-729 -887 0
-729 -888 0
-729 -889 0
-730 -732 0
-730 -733 0
-730 -734 0
-730 -735 0
-730 -736 0
-730 -737 0
-730 -738 0
-730 -739 0
-730 -740 0
-730 -882 0
-730 -883 0
-730 -884 0
-730 -885 0
-730 -886 0
-730 -887 0
-730 -888 0
-730 -889 0
-730 -890 0
-731 -741 0
-731 -743 0
-731 -744 0
-731 -746 0
-731 -747 0
-731 -748 0
-731 -749 0
-731 -750 0
-731 -891 0
-731 -893 0
-731 -894 0
-731 -896 0
-731 -897 0
-731 -898 0
-731 -899 0
-731 -900 0
-732 -741 0
-732 -742 0
-732 -744 0
-732 -745 0
-732 -746 0
-732 -747 0
-732 -748 0
-732 -749 0
-732 -750 0
-732 -891 0
-732 -892 0
-732 -893 0
-732 -894 0
-732 -895 0
-732 -897 0
-732 -898 0
-732 -899 0
-732 -900 0
-733 -741 0
-733 -742 0
-733 -743 0
-733 -745 0
-733 -746 0
-733 -747 0
-733 -748 0
-733 -749 0
-733 -750 0
-733 -891 0
-733 -892 0
-733 -893 0
-733 -894 0
-733 -895 0
-733 -896 0
-733 -898 0
-733 -899 0
-733 -900 0
-734 -742 0
-734 -743 0
-734 -744 0
-734 -745 0
-734 -746 0
-734 -747 0
-734 -748 0
-734 -749 0
-734 -750 0
-734 -891 0
-734 -892 0
-734 -893 0
-734 -894 0
-734 -895 0
-734 -896 0
-734 -897 0
-734 -899 0
-734 -900 0
-735 -741 0
-735 -742 0
-735 -743 0
-735 -744 0
-735 -745 0
-735 -747 0
-735 -748 0
-735 -750 0
-735 -891 0
-735 -892 0
-735 -894 0
-735 -895 0
-735 -896 0
-735 -897 0
-735 -898 0
-735 -900 0
-736 -741 0
-736 -742 0
-736 -743 0
-736 -744 0
-736 -745 0
-736 -746 0
-736 -748 0
-736 -749 0
-736 -750 0
-736 -891 0
-736 -892 0
-736 -893 0
-736 -895 0
-736 -896 0
-736 -897 0
-736 -898 0
-736 -899 0
-737 -741 0
-737 -742 0
-737 -743 0
-737 -744 0
-737 -745 0
-737 -746 0
-737 -747 0
-737 -749 0
-737 -750 0
-737 -892 0
-737 -893 0
-737 -894 0
-737 -895 0
-737 -896 0
-737 -897 0
-737 -898 0
-737 -899 0
-737 -900 0
-738 -741 0
-738 -743 0
-738 -744 0
-738 -746 0
-738 -747 0
-738 -748 0
-738 -749 0
-738 -750 0
-738 -891 0
-738 -893 0
-738 -894 0
-738 -896 0
-738 -897 0
-738 -898 0
-738 -899 0
-738 -900 0
-739 -741 0
-739 -742 0
-739 -743 0
-739 -744 0
-739 -745 0
-739 -746 0
-739 -747 0
-739 -748 0
-739 -749 0
-739 -891 0
-739 -892 0
-739 -893 0
-739 -895 0
-739 -896 0
-739 -897 0
-739 -898 0
-739 -899 0
-740 -742 0
-740 -743 0
-740 -744 0
-740 -745 0
-740 -746 0
-740 -747 0
-740 -748 0
-740 -749 0
-740 -750 0
-740 -892 0
-740 -893 0
-740 -894 0
-740 -895 0
-740 -896 0
-740 -897 0
-740 -898 0
-740 -899 0
-740 -900 0
-741 -751 0
-741 -753 0
-741 -754 0
-741 -756 0
-741 -757 0
-741 -758 0
-741 -759 0
-741 -760 0
-741 -901 0
-741 -903 0
-741 -904 0
-741 -906 0
-741 -907 0
-741 -908 0
-741 -909 0
-741 -910 0
-742 -751 0
-742 -752 0
-742 -754 0
-742 -755 0
-742 -756 0
-742 -757 0
-742 -758 0
-742 -759 0
-742 -760 0
-742 -901 0
-742 -902 0
-742 -903 0
-742 -904 0
-742 -905 0
-742 -907 0
-742 -908 0
-742 -909 0
-742 -910 0
-743 -751 0
-743 -752 0
-743 -753 0
-743 -755 0
-743 -756 0
-743 -757 0
-743 -758 0
-743 -759 0
-743 -760 0
-743 -901 0
-743 -902 0
-743 -903 0
-743 -904 0
-743 -905 0
-743 -906 0
-743 -908 0
-743 -909 0
-743 -910 0
-744 -752 0
-744 -753 0
-744 -754 0
-744 -755 0
-744 -756 0
-744 -757 0
-744 -758 0
-744 -759 0
-744 -760 0
-744 -901 0
-744 -902 0
-744 -903 0
-744 -904 0
-744 -905 0
-744 -906 0
-744 -907 0
-744 -909 0
-744 -910 0
-745 -751 0
-745 -752 0
-745 -753 0
-745 -754 0
-745 -755 0
-745 -757 0
-745 -758 0
-745 -760 0
-745 -901 0
-745 -902 0
-745 -904 0
-745 -905 0
-745 -906 0
-745 -907 0
-745 -908 0
-745 -910 0
-746 -751 0
-746 -752 0
-746 -753 0
-746 -754 0
-746 -755 0
-746 -756 0
-746 -758 0
-746 -759 0
-746 -760 0
-746 -901 0
-746 -902 0
-746 -903 0
-746 -905 0
-746 -906 0
-746 -907 0
-746 -908 0
-746 -909 0
-747 -751 0
-747 -752 0
-747 -753 0
-747 -754 0
-747 -755 0
-747 -756 0
-747 -757 0
-747 -759 0
-747 -760 0
-747 -902 0
-747 -903 0
-747 -904 0
-747 -905 0
-747 -906 0
-747 -907 0
-747 -908 0
-747 -909 0
-747 -910 0
-748 -751 0
-748 -753 0
-748 -754 0
-748 -756 0
-748 -757 0
-748 -758 0
-748 -759 0
-748 -760 0
-748 -901 0
-748 -903 0
-748 -904 0
-748 -906 0
-748 -907 0
-748 -908 0
-748 -909 0
-748 -910 0
-749 -751 0
-749 -752 0
-749 -753 0
-749 -754 0
-749 -755 0
-749 -756 0
-749 -757 0
-749 -758 0
-749 -759 0
-749 -901 0
-749 -902 0
-749 -903 0
-749 -905 0
-749 -906 0
-749 -907 0
-749 -908 0
-749 -909 0
-750 -752 0
-750 -753 0
-750 -754 0
-750 -755 0
-750 -756 0
-750 -757 0
-750 -758 0
-750 -759 0
-750 -760 0
-750 -902 0
-750 -903 0
-750 -904 0
-750 -905 0
-750 -906 0
-750 -907 0
-750 -908 0
-750 -909 0
-750 -910 0
-751 -761 0
-751 -763 0
-751 -764 0
-751 -766 0
-751 -767 0
-751 -768 0
-751 -769 0
-751 -770 0
-751 -911 0
-751 -913 0
-751 -914 0
-751 -916 0
-751 -917 0
-751 -918 0
-751 -919 0
-751 -920 0
-752 -761 0
-752 -762 0
-752 -764 0
-752 -765 0
-752 -766 0
-752 -767 0
-752 -768 0
-752 -769 0
-752 -770 0
-752 -911 0
-752 -912 0
-752 -913 0
-752 -914 0
-752 -915 0
-752 -917 0
-752 -918 0
-752 -919 0
-752 -920 0
-753 -761 0
-753 -762 0
-753 -763 0
-753 -765 0
-753 -766 0
-753 -767 0
-753 -768 0
-753 -769 0
-753 -770 0
-753 -911 0
-753 -912 0
-753 -913 0
-753 -914 0
-753 -915 0
-753 -916 0
-753 -918 0
-753 -919 0
-753 -920 0
-754 -762 0
-754 -763 0
-754 -764 0
-754 -765 0
-754 -766 0
-754 -767 0
-754 -768 0
-754 -769 0
-754 -770 0
-754 -911 0
-754 -912 0
-754 -913 0
-754 -914 0
-754 -915 0
-754 -916 0
-754 -917 0
-754 -919 0
-754 -920 0
-755 -761 0
-755 -762 0
-755 -763 0
-755 -764 0
-755 -765 0
-755 -767 0
-755 -768 0
-755 -770 0
-755 -911 0
-755 -912 0
-755 -914 0
-755 -915 0
-755 -916 0
-755 -917 0
-755 -918 0
-755 -920 0
-756 -761 0
-756 -762 0
-756 -763 0
-756 -764 0
-756 -765 0
-756 -766 0
-756 -768 0
-756 -769 0
-756 -770 0
-756 -911 0
-756 -912 0
-756 -913 0
-756 -915 0
-756 -916 0
-756 -917 0
-756 -918 0
-756 -919 0
-757 -761 0
-757 -762 0
-757 -763 0
-757 -764 0
-757 -765 0
-757 -766 0
-757 -767 0
-757 -769 0
-757 -770 0
-757 -912 0
-757 -913 0
-757 -914 0
-757 -915 0
-757 -916 0
-757 -917 0
-757 -918 0
-757 -919 0
-757 -920 0
-758 -761 0
-758 -763 0
-758 -764 0
-758 -766 0
-758 -767 0
-758 -768 0
-758 -769 0
-758 -770 0
-758 -911 0
-758 -913 0
-758 -914 0
-758 -916 0
-758 -917 0
-758 -918 0
-758 -919 0
-758 -920 0
-759 -761 0
-759 -762 0
-759 -763 0
-759 -764 0
-759 -765 0
-759 -766 0
-759 -767 0
-759 -768 0
-759 -769 0
-759 -911 0
-759 -912 0
-759 -913 0
-759 -915 0
-759 -916 0
-759 -917 0
-759 -918 0
-759 -919 0
-760 -762 0
-760 -763 0
-760 -764 0
-760 -765 0
-760 -766 0
-760 -767 0
-760 -768 0
-760 -769 0
-760 -770 0
-760 -912 0
-760 -913 0
-760 -914 0
-760 -915 0
-760 -916 0
-760 -917 0
-760 -918 0
-760 -919 0
-760 -920 0
-761 -771 0
-761 -773 0
-761 -774 0
-761 -776 0
-761 -777 0
-761 -778 0
-761 -779 0
-761 -780 0
-761 -921 0
-761 -923 0
-761 -924 0
-761 -926 0
-761 -927 0
-761 -928 0
-761 -929 0
-761 -930 0
-762 -771 0
-762 -772 0
-762 -774 0
-762 -775 0
-762 -776 0
-762 -777 0
-762 -778 0
-762 -779 0
-762 -780 0
-762 -921 0
-762 -922 0
-762 -923 0
-762 -924 0
-762 -925 0
-762 -927 0
-762 -928 0
-762 -929 0
-762 -930 0
-763 -771 0
-763 -772 0
-763 -773 0
-763 -775 0
-763 -776 0
-763 -777 0
-763 -778 0
-763 -779 0
-763 -780 0
-763 -921 0
-763 -922 0
-763 -923 0
-763 -924 0
-763 -925 0
-763 -926 0
-763 -928 0
-763 -929 0
-763 -930 0
-764 -772 0
-764 -773 0
-764 -774 0
-764 -775 0
-764 -776 0
-764 -777 0
-764 -778 0
-764 -779 0
-764 -780 0
-764 -921 0
-764 -922 0
-764 -923 0
-764 -924 0
-764 -925 0
-764 -926 0
-764 -927 0
-764 -929 0
-764 -930 0
-765 -771 0
-765 -772 0
-765 -773 0
-765 -774 0
-765 -775 0
-765 -777 0
-765 -778 0
-765 -780 0
-765 -921 0
-765 -922 0
-765 -924 0
-765 -925 0
-765 -926 0
-765 -927 0
-765 -928 0
-765 -930 0
-766 -771 0
-766 -772 0
-766 -773 0
-766 -774 0
-766 -775 0
-766 -776 0
-766 -778 0
-766 -779 0
-766 -780 0
-766 -921 0
-766 -922 0
-766 -923 0
-766 -925 0
-766 -926 0
-766 -927 0
-766 -928 0
-766 -929 0
-767 -771 0
-767 -772 0
-767 -773 0
-767 -774 0
-767 -775 0
-767 -776 0
-767 -777 0
-767 -779 0
-767 -780 0
-767 -922 0
-767 -923 0
-767 -924 0
-767 -925 0
-767 -926 0
-767 -927 0
-767 -928 0
-767 -929 0
-767 -930 0
-768 -771 0
-768 -773 0
-768 -774 0
-768 -776 0
-768 -777 0
-768 -778 0
-768 -779 0
-768 -780 0
-768 -921 0
-768 -923 0
-768 -924 0
-768 -926 0
-768 -927 0
-768 -928 0
-768 -929 0
-768 -930 0
-769 -771 0
-769 -772 0
-769 -773 0
-769 -774 0
-769 -775 0
-769 -776 0
-769 -777 0
-769 -778 0
-769 -779 0
-769 -921 0
-769 -922 0
-769 -923 0
-769 -925 0
-769 -926 0
-769 -927 0
-769 -928 0
-769 -929 0
-770 -772 0
-770 -773 0
-770 -774 0
-770 -775 0
-770 -776 0
-770 -777 0
-770 -778 0
-770 -779 0
-770 -780 0
-770 -922 0
-770 -923 0
-770 -924 0
-770 -925 0
-770 -926 0
-770 -927 0
-770 -928 0
-770 -929 0
-770 -930 0
-771 -781 0
-771 -783 0
-771 -784 0
-771 -786 0
-771 -787 0
-771 -788 0
-771 -789 0
-771 -790 0
-771 -931 0
-771 -933 0
-771 -934 0
-771 -936 0
-771 -937 0
-771 -938 0
-771 -939 0
-771 -940 0
-772 -781 0
-772 -782 0
-772 -784 0
-772 -785 0
-772 -786 0
-772 -787 0
-772 -788 0
-772 -789 0
-772 -790 0
-772 -931 0
-772 -932 0
-772 -933 0
-772 -934 0
-772 -935 0
-772 -937 0
-772 -938 0
-772 -939 0
-772 -940 0
-773 -781 0
-773 -782 0
-773 -783 0
-773 -785 0
-773 -786 0
-773 -787 0
-773 -788 0
-773 -789 0
-773 -790 0
-773 -931 0
-773 -932 0
-773 -933 0
-773 -934 0
-773 -935 0
-773 -936 0
-773 -938 0
-773 -939 0
-773 -940 0
-774 -782 0
-774 -783 0
-774 -784 0
-774 -785 0
-774 -786 0
-774 -787 0
-774 -788 0
-774 -789 0
-774 -790 0
-774 -931 0
-774 -932 0
-774 -933 0
-774 -934 0
-774 -935 0
-774 -936 0
-774 -937 0
-774 -939 0
-774 -940 0
-775 -781 0
-775 -782 0
-775 -783 0
-775 -784 0
-775 -785 0
-775 -787 0
-775 -788 0
-775 -790 0
-775 -931 0
-775 -932 0
-775 -934 0
-775 -935 0
-775 -936 0
-775 -937 0
-775 -938 0
-775 -940 0
-776 -781 0
-776 -782 0
-776 -783 0
-776 -784 0
-776 -785 0
-776 -786 0
-776 -788 0
-776 -789 0
-776 -790 0
-776 -931 0
-776 -932 0
-776 -933 0
-776 -935 0
-776 -936 0
-776 -937 0
-776 -938 0
-776 -939 0
-777 -781 0
-777 -782 0
-777 -783 0
-777 -784 0
-777 -785 0
-777 -786 0
-777 -787 0
-777 -789 0
-777 -790 0
-777 -932 0
-777 -933 0
-777 -934 0
-777 -935 0
-777 -936 0
-777 -937 0
-777 -938 0
-777 -939 0
-777 -940 0
-778 -781 0
-778 -783 0
-778 -784 0
-778 -786 0
-778 -787 0
-778 -788 0
-778 -789 0
-778 -790 0
-778 -931 0
-778 -933 0
-778 -934 0
-778 -936 0
-778 -937 0
-778 -938 0
-778 -939 0
-778 -940 0
-779 -781 0
-779 -782 0
-779 -783 0
-779 -784 0
-779 -785 0
-779 -786 0
-779 -787 0
-779 -788 0
-779 -789 0
-779 -931 0
-779 -932 0
-779 -933 0
-779 -935 0
-779 -936 0
-779 -937 0
-779 -938 0
-779 -939 0
-780 -782 0
-780 -783 0
-780 -784 0
-780 -785 0
-780 -786 0
-780 -787 0
-780 -788 0
-780 -789 0
-780 -790 0
-780 -932 0
-780 -933 0
-780 -934 0
-780 -935 0
-780 -936 0
-780 -937 0
-780 -938 0
-780 -939 0
-780 -940 0
-781 -791 0
-781 -793 0
-781 -794 0
-781 -796 0
-781 -797 0
-781 -798 0
-781 -799 0
-781 -800 0
-781 -941 0
-781 -943 0
-781 -944 0
-781 -946 0
-781 -947 0
-781 -948 0
-781 -949 0
-781 -950 0
-782 -791 0
-782 -792 0
-782 -794 0
-782 -795 0
-782 -796 0
-782 -797 0
-782 -798 0
-782 -799 0
-782 -800 0
-782 -941 0
-782 -942 0
-782 -943 0
-782 -944 0
-782 -945 0
-782 -947 0
-782 -948 0
-782 -949 0
-782 -950 0
-783 -791 0
-783 -792 0
-783 -793 0
-783 -795 0
-783 -796 0
-783 -797 0
-783 -798 0
-783 -799 0
-783 -800 0
-783 -941 0
-783 -942 0
-783 -943 0
-783 -944 0
-783 -945 0
-783 -946 0
-783 -948 0
-783 -949 0
-783 -950 0
-784 -792 0
-784 -793 0
-784 -794 0
-784 -795 0
-784 -796 0
-784 -797 0
-784 -798 0
-784 -799 0
-784 -800 0
-784 -941 0
-784 -942 0
-784 -943 0
-784 -944 0
-784 -945 0
-784 -946 0
-784 -947 0
-784 -949 0
-784 -950 0
-785 -791 0
-785 -792 0
-785 -793 0
-785 -794 0
-785 -795 0
-785 -797 0
-785 -798 0
-785 -800 0
-785 -941 0
-785 -942 0
-785 -944 0
-785 -945 0
-785 -946 0
-785 -947 0
-785 -948 0
-785 -950 0
-786 -791 0
-786 -792 0
-786 -793 0
-786 -794 0
-786 -795 0
-786 -796 0
-786 -798 0
-786 -799 0
-786 -800 0
-786 -941 0
-786 -942 0
-786 -943 0
-786 -945 0
-786 -946 0
-786 -947 0
-786 -948 0
-786 -949 0
-787 -791 0
-787 -792 0
-787 -793 0
-787 -794 0
-787 -795 0
-787 -796 0
-787 -797 0
-787 -799 0
-787 -800 0
-787 -942 0
-787 -943 0
-787 -944 0
-787 -945 0
-787 -946 0
-787 -947 0
-787 -948 0
-787 -949 0
-787 -950 0
-788 -791 0
-788 -793 0
-788 -794 0
-788 -796 0
-788 -797 0
-788 -798 0
-788 -799 0
-788 -800 0
-788 -941 0
-788 -943 0
-788 -944 0
-788 -946 0
-788 -947 0
-788 -948 0
-788 -949 0
-788 -950 0
-789 -791 0
-789 -792 0
-789 -793 0
-789 -794 0
-789 -795 0
-789 -796 0
-789 -797 0
-789 -798 0
-789 -799 0
-789 -941 0
-789 -942 0
-789 -943 0
-789 -945 0
-789 -946 0
-789 -947 0
-789 -948 0
-789 -949 0
-790 -792 0
-790 -793 0
-790 -794 0
-790 -795 0
-790 -796 0
-790 -797 0
-790 -798 0
-790 -799 0
-790 -800 0
-790 -942 0
-790 -943 0
-790 -944 0
-790 -945 0
-790 -946 0
-790 -947 0
-790 -948 0
-790 -949 0
-790 -950 0
-791 -951 0
-791 -953 0
-791 -954 0
-791 -956 0
-791 -957 0
-791 -958 0
-791 -959 0
-791 -960 0
-792 -951 0
-792 -952 0
-792 -953 0
-792 -954 0
-792 -955 0
-792 -957 0
-792 -958 0
-792 -959 0
-792 -960 0
-793 -951 0
-793 -952 0
-793 -953 0
-793 -954 0
-793 -955 0
-793 -956 0
-793 -958 0
-793 -959 0
-793 -960 0
-794 -951 0
-794 -952 0
-794 -953 0
-794 -954 0
-794 -955 0
-794 -956 0
-794 -957 0
-794 -959 0
-794 -960 0
-795 -951 0
-795 -952 0
-795 -954 0
-795 -955 0
-795 -956 0
-795 -957 0
-795 -958 0
-795 -960 0
-796 -951 0
-796 -952 0
-796 -953 0
-796 -955 0
-796 -956 0
-796 -957 0
-796 -958 0
-796 -959 0
-797 -952 0
-797 -953 0
-797 -954 0
-797 -955 0
-797 -956 0
-797 -957 0
-797 -958 0
-797 -959 0
-797 -960 0
-798 -951 0
-798 -953 0
-798 -954 0
-798 -956 0
-798 -957 0
-798 -958 0
-798 -959 0
-798 -960 0
-799 -951 0
-799 -952 0
-799 -953 0
-799 -955 0
-799 -956 0
-799 -957 0
-799 -958 0
-799 -959 0
-800 -952 0
-800 -953 0
-800 -954 0
-800 -955 0
-800 -956 0
-800 -957 0
-800 -958 0
-800 -959 0
-800 -960 0
-801 -811 0
-801 -813 0
-801 -814 0
-801 -816 0
-801 -817 0
-801 -818 0
-801 -819 0
-801 -820 0
-801 -961 0
-801 -963 0
-801 -964 0
-801 -966 0
-801 -967 0
-801 -968 0
-801 -969 0
-801 -970 0
-802 -811 0
-802 -812 0
-802 -814 0
-802 -815 0
-802 -816 0
-802 -817 0
-802 -818 0
-802 -819 0
-802 -820 0
-802 -961 0
-802 -962 0
-802 -963 0
-802 -964 0
-802 -965 0
-802 -967 0
-802 -968 0
-802 -969 0
-802 -970 0
-803 -811 0
-803 -812 0
-803 -813 0
-803 -815 0
-803 -816 0
-803 -817 0
-803 -818 0
-803 -819 0
-803 -820 0
-803 -961 0
-803 -962 0
-803 -963 0
-803 -964 0
-803 -965 0
-803 -966 0
-803 -968 0
-803 -969 0
-803 -970 0
-804 -812 0
-804 -813 0
-804 -814 0
-804 -815 0
-804 -816 0
-804 -817 0
-804 -818 0
-804 -819 0
-804 -820 0
-804 -961 0
-804 -962 0
-804 -963 0
-804 -964 0
-804 -965 0
-804 -966 0
-804 -967 0
-804 -969 0
-804 -970 0
-805 -811 0
-805 -812 0
-805 -813 0
-805 -814 0
-805 -815 0
-805 -817 0
-805 -818 0
-805 -820 0
-805 -961 0
-805 -962 0
-805 -964 0
-805 -965 0
-805 -966 0
-805 -967 0
-805 -968 0
-805 -970 0
-806 -811 0
-806 -812 0
-806 -813 0
-806 -814 0
-806 -815 0
-806 -816 0
-806 -818 0
-806 -819 0
-806 -820 0
-806 -961 0
-806 -962 0
-806 -963 0
-806 -965 0
-806 -966 0
-806 -967 0
-806 -968 0
-806 -969 0
-807 -811 0
-807 -812 0
-807 -813 0
-807 -814 0
-807 -815 0
-807 -816 0
-807 -817 0
-807 -819 0
-807 -820 0
-807 -962 0
-807 -963 0
-807 -964 0
-807 -965 0
-807 -966 0
-807 -967 0
-807 -968 0
-807 -969 0
-807 -970 0
-808 -811 0
-808 -813 0
-808 -814 0
-808 -816 0
-808 -817 0
-808 -818 0
-808 -819 0
-808 -820 0
-808 -961 0
-808 -963 0
-808 -964 0
-808 -966 0
-808 -967 0
-808 -968 0
-808 -969 0
-808 -970 0
-809 -811 0
-809 -812 0
-809 -813 0
-809 -814 0
-809 -815 0
-809 -816 0
-809 -817 0
-809 -818 0
-809 -819 0
-809 -961 0
-809 -962 0
-809 -963 0
-809 -965 0
-809 -966 0
-809 -967 0
-809 -968 0
-809 -969 0
-810 -812 0
-810 -813 0
-810 -814 0
-810 -815 0
-810 -816 0
-810 -817 0
-810 -818 0
-810 -819 0
-810 -820 0
-810 -962 0
-810 -963 0
-810 -964 0
-810 -965 0
-810 -966 0
-810 -967 0
-810 -968 0
-810 -969 0
-810 -970 0
-811 -821 0
-811 -823 0
-811 -824 0
-811 -826 0
-811 -827 0
-811 -828 0
-811 -829 0
-811 -830 0
-811 -971 0
-811 -973 0
-811 -974 0
-811 -976 0
-811 -977 0
-811 -978 0
-811 -979 0
-811 -980 0
-812 -821 0
-812 -822 0
-812 -824 0
-812 -825 0
-812 -826 0
-812 -827 0
-812 -828 0
-812 -829 0
-812 -830 0
-812 -971 0
-812 -972 0
-812 -973 0
-812 -974 0
-812 -975 0
-812 -977 0
-812 -978 0
-812 -979 0
-812 -980 0
-813 -821 0
-813 -822 0
-813 -823 0
-813 -825 0
-813 -826 0
-813 -827 0
-813 -828 0
-813 -829 0
-813 -830 0
-813 -971 0
-813 -972 0
-813 -973 0
-813 -974 0
-813 -975 0
-813 -976 0
-813 -978 0
-813 -979 0
-813 -980 0
-814 -822 0
-814 -823 0
-814 -824 0
-814 -825 0
-814 -826 0
-814 -827 0
-814 -828 0
-814 -829 0
-814 -830 0
-814 -971 0
-814 -972 0
-814 -973 0
-814 -974 0
-814 -975 0
-814 -976 0
-814 -977 0
-814 -979 0
-814 -980 0
-815 -821 0
-815 -822 0
-815 -823 0
-815 -824 0
-815 -825 0
-815 -827 0
-815 -828 0
-815 -830 0
-815 -971 0
-815 -972 0
-815 -974 0
-815 -975 0
-815 -976 0
-815 -977 0
-815 -978 0
-815 -980 0
-816 -821 0
-816 -822 0
-816 -823 0
-816 -824 0
-816 -825 0
-816 -826 0
-816 -828 0
-816 -829 0
-816 -830 0
-816 -971 0
-816 -972 0
-816 -973 0
-816 -975 0
-816 -976 0
-816 -977 0
-816 -978 0
-816 -979 0
-817 -821 0
-817 -822 0
-817 -823 0
-817 -824 0
-817 -825 0
-817 -826 0
-817 -827 0
-817 -829 0
-817 -830 0
-817 -972 0
-817 -973 0
-817 -974 0
-817 -975 0
-817 -976 0
-817 -977 0
-817 -978 0
-817 -979 0
-817 -980 0
-818 -821 0
-818 -823 0
-818 -824 0
-818 -826 0
-818 -827 0
-818 -828 0
-818 -829 0
-818 -830 0
-818 -971 0
-818 -973 0
-818 -974 0
-818 -976 0
-818 -977 0
-818 -978 0
-818 -979 0
-818 -980 0
-819 -821 0
-819 -822 0
-819 -823 0
-819 -824 0
-819 -825 0
-819 -826 0
-819 -827 0
-819 -828 0
-819 -829 0
-819 -971 0
-819 -972 0
-819 -973 0
-819 -975 0
-819 -976 0
-819 -977 0
-819 -978 0
-819 -979 0
-820 -822 0
-820 -823 0
-820 -824 0
-820 -825 0
-820 -826 0
-820 -827 0
-820 -828 0
-820 -829 0
-820 -830 0
-820 -972 0
-820 -973 0
-820 -974 0
-820 -975 0
-820 -976 0
-820 -977 0
-820 -978 0
-820 -979 0
-820 -980 0
-821 -831 0
-821 -833 0
-821 -834 0
-821 -836 0
-821 -837 0
-821 -838 0
-821 -839 0
-821 -840 0
-821 -981 0
-821 -983 0
-821 -984 0
-821 -986 0
-821 -987 0
-821 -988 0
-821 -989 0
-821 -990 0
-822 -831 0
-822 -832 0
-822 -834 0
-822 -835 0
-822 -836 0
-822 -837 0
-822 -838 0
-822 -839 0
-822 -840 0
-822 -981 0
-822 -982 0
-822 -983 0
-822 -984 0
-822 -985 0
-822 -987 0
-822 -988 0
-822 -989 0
-822 -990 0
-823 -831 0
-823 -832 0
-823 -833 0
-823 -835 0
-823 -836 0
-823 -837 0
-823 -838 0
-823 -839 0
-823 -840 0
-823 -981 0
-823 -982 0
-823 -983 0
-823 -984 0
-823 -985 0
-823 -986 0
-823 -988 0
-823 -989 0
-823 -990 0
-824 -832 0
-824 -833 0
-824 -834 0
-824 -835 0
-824 -836 0
-824 -837 0
-824 -838 0
-824 -839 0
-824 -840 0
-824 -981 0
-824 -982 0
-824 -983 0
-824 -984 0
-824 -985 0
-824 -986 0
-824 -987 0
-824 -989 0
-824 -990 0
-825 -831 0
-825 -832 0
-825 -833 0
-825 -834 0
-825 -835 0
-825 -837 0
-825 -838 0
-825 -840 0
-825 -981 0
-825 -982 0
-825 -984 0
-825 -985 0
-825 -986 0
-825 -987 0
-825 -988 0
-825 -990 0
-826 -831 0
-826 -832 0
-826 -833 0
-826 -834 0
-826 -835 0
-826 -836 0
-826 -838 0
-826 -839 0
-826 -840 0
-826 -981 0
-826 -982 0
-826 -983 0
-826 -985 0
-826 -986 0
-826 -987 0
-826 -988 0
-826 -989 0
-827 -831 0
-827 -832 0
-827 -833 0
-827 -834 0
-827 -835 0
-827 -836 0
-827 -837 0
-827 -839 0
-827 -840 0
-827 -982 0
-827 -983 0
-827 -984 0
-827 -985 0
-827 -986 0
-827 -987 0
-827 -988 0
-827 -989 0
-827 -990 0
-828 -831 0
-828 -833 0
-828 -834 0
-828 -836 0
-828 -837 0
-828 -838 0
-828 -839 0
-828 -840 0
-828 -981 0
-828 -983 0
-828 -984 0
-828 -986 0
-828 -987 0
-828 -988 0
-828 -989 0
-828 -990 0
-829 -831 0
-829 -832 0
-829 -833 0
-829 -834 0
-829 -835 0
-829 -836 0
-829 -837 0
-829 -838 0
-829 -839 0
-829 -981 0
-829 -982 0
-829 -983 0
-829 -985 0
-829 -986 0
-829 -987 0
-829 -988 0
-829 -989 0
-830 -832 0
-830 -833 0
-830 -834 0
-830 -835 0
-830 -836 0
-830 -837 0
-830 -838 0
-830 -839 0
-830 -840 0
-830 -982 0
-830 -983 0
-830 -984 0
-830 -985 0
-830 -986 0
-830 -987 0
-830 -988 0
-830 -989 0
-830 -990 0
-831 -841 0
-831 -843 0
-831 -844 0
-831 -846 0
-831 -847 0
-831 -848 0
-831 -849 0
-831 -850 0
-831 -991 0
-831 -993 0
-831 -994 0
-831 -996 0
-831 -997 0
-831 -998 0
-831 -999 0
-831 -1000 0
-832 -841 0
-832 -842 0
-832 -844 0
-832 -845 0
-832 -846 0
-832 -847 0
-832 -848 0
-832 -849 0
-832 -850 0
-832 -991 0
-832 -992 0
-832 -993 0
-832 -994 0
-832 -995 0
-832 -997 0
-832 -998 0
-832 -999 0
-832 -1000 0
-833 -841 0
-833 -842 0
-833 -843 0
-833 -845 0
-833 -846 0
-833 -847 0
-833 -848 0
-833 -849 0
-833 -850 0
-833 -991 0
-833 -992 0
-833 -993 0
-833 -994 0
-833 -995 0
-833 -996 0
-833 -998 0
-833 -999 0
-833 -1000 0
-834 -842 0
-834 -843 0
-834 -844 0
-834 -845 0
-834 -846 0
-834 -847 0
-834 -848 0
-834 -849 0
-834 -850 0
-834 -991 0
-834 -992 0
-834 -993 0
-834 -994 0
-834 -995 0
-834 -996 0
-834 -997 0
-834 -999 0
-834 -1000 0
-835 -841 0
-835 -842 0
-835 -843 0
-835 -844 0
-835 -845 0
-835 -847 0
-835 -848 0
-835 -850 0
-835 -991 0
-835 -992 0
-835 -994 0
-835 -995 0
-835 -996 0
-835 -997 0
-835 -998 0
-835 -1000 0
-836 -841 0
-836 -842 0
-836 -843 0
-836 -844 0
-836 -845 0
-836 -846 0
-836 -848 0
-836 -849 0
-836 -850 0
-836 -991 0
-836 -992 0
-836 -993 0
-836 -995 0
-836 -996 0
-836 -997 0
-836 -998 0
-836 -999 0
-837 -841 0
-837 -842 0
-837 -843 0
-837 -844 0
-837 -845 0
-837 -846 0
-837 -847 0
-837 -849 0
-837 -850 0
-837 -992 0
-837 -993 0
-837 -994 0
-837 -995 0
-837 -996 0
-837 -997 0
-837 -998 0
-837 -999 0
-837 -1000 0
-838 -841 0
-838 -843 0
-838 -844 0
-838 -846 0
-838 -847 0
-838 -848 0
-838 -849 0
-838 -850 0
-838 -991 0
-838 -993 0
-838 -994 0
-838 -996 0
-838 -997 0
-838 -998 0
-838 -999 0
-838 -1000 0
-839 -841 0
-839 -842 0
-839 -843 0
-839 -844 0
-839 -845 0
-839 -846 0
-839 -847 0
-839 -848 0
-839 -849 0
-839 -991 0
-839 -992 0
-839 -993 0
-839 -995 0
-839 -996 0
-839 -997 0
-839 -998 0
-839 -999 0
-840 -842 0
-840 -843 0
-840 -844 0
-840 -845 0
-840 -846 0
-840 -847 0
-840 -848 0
-840 -849 0
-840 -850 0
-840 -992 0
-840 -993 0
-840 -994 0
-840 -995 0
-840 -996 0
-840 -997 0
-840 -998 0
-840 -999 0
-840 -1000 0
-841 -851 0
-841 -853 0
-841 -854 0
-841 -856 0
-841 -857 0
-841 -858 0
-841 -859 0
-841 -860 0
-841 -1001 0
-841 -1003 0
-841 -1004 0
-841 -1006 0
-841 -1007 0
-841 -1008 0
-841 -1009 0
-841 -1010 0
-842 -851 0
-842 -852 0
-842 -854 0
-842 -855 0
-842 -856 0
-842 -857 0
-842 -858 0
-842 -859 0
-842 -860 0
-842 -1001 0
-842 -1002 0
-842 -1003 0
-842 -1004 0
-842 -1005 0
-842 -1007 0
-842 -1008 0
-842 -1009 0
-842 -1010 0
-843 -851 0
-843 -852 0
-843 -853 0
-843 -855 0
-843 -856 0
-843 -857 0
-843 -858 0
-843 -859 0
-843 -860 0
-843 -1001 0
-843 -1002 0
-843 -1003 0
-843 -1004 0
-843 -1005 0
-843 -1006 0
-843 -1008 0
-843 -1009 0
-843 -1010 0
-844 -852 0
-844 -853 0
-844 -854 0
-844 -855 0
-844 -856 0
-844 -857 0
-844 -858 0
-844 -859 0
-844 -860 0
-844 -1001 0
-844 -1002 0
-844 -1003 0
-844 -1004 0
-844 -1005 0
-844 -1006 0
-844 -1007 0
-844 -1009 0
-844 -1010 0
-845 -851 0
-845 -852 0
-845 -853 0
-845 -854 0
-845 -855 0
-845 -857 0
-845 -858 0
-845 -860 0
-845 -1001 0
-845 -1002 0
-845 -1004 0
-845 -1005 0
-845 -1006 0
-845 -1007 0
-845 -1008 0
-845 -1010 0
-846 -851 0
-846 -852 0
-846 -853 0
-846 -854 0
-846 -855 0
-846 -856 0
-846 -858 0
-846 -859 0
-846 -860 0
-846 -1001 0
-846 -1002 0
-846 -1003 0
-846 -1005 0
-846 -1006 0
-846 -1007 0
-846 -1008 0
-846 -1009 0
-847 -851 0
-847 -852 0
-847 -853 0
-847 -854 0
-847 -855 0
-847 -856 0
-847 -857 0
-847 -859 0
-847 -860 0
-847 -1002 0
-847 -1003 0
-847 -1004 0
-847 -1005 0
-847 -1006 0
-847 -1007 0
-847 -1008 0
-847 -1009 0
-847 -1010 0
-848 -851 0
-848 -853 0
-848 -854 0
-848 -856 0
-848 -857 0
-848 -858 0
-848 -859 0
-848 -860 0
-848 -1001 0
-848 -1003 0
-848 -1004 0
-848 -1006 0
-848 -1007 0
-848 -1008 0
-848 -1009 0
-848 -1010 0
-849 -851 0
-849 -852 0
-849 -853 0
-849 -854 0
-849 -855 0
-849 -856 0
-849 -857 0
-849 -858 0
-849 -859 0
-849 -1001 0
-849 -1002 0
-849 -1003 0
-849 -1005 0
-849 -1006 0
-849 -1007 0
-849 -1008 0
-849 -1009 0
-850 -852 0
-850 -853 0
-850 -854 0
-850 -855 0
-850 -856 0
-850 -857 0
-850 -858 0
-850 -859 0
-850 -860 0
-850 -1002 0
-850 -1003 0
-850 -1004 0
-850 -1005 0
-850 -1006 0
-850 -1007 0
-850 -1008 0
-850 -1009 0
-850 -1010 0
-851 -861 0
-851 -863 0
-851 -864 0
-851 -866 0
-851 -867 0
-851 -868 0
-851 -869 0
-851 -870 0
-851 -1011 0
-851 -1013 0
-851 -1014 0
-851 -1016 0
-851 -1017 0
-851 -1018 0
-851 -1019 0
-851 -1020 0
-852 -861 0
-852 -862 0
-852 -864 0
-852 -865 0
-852 -866 0
-852 -867 0
-852 -868 0
-852 -869 0
-852 -870 0
-852 -1011 0
-852 -1012 0
-852 -1013 0
-852 -1014 0
-852 -1015 0
-852 -1017 0
-852 -1018 0
-852 -1019 0
-852 -1020 0
-853 -861 0
-853 -862 0
-853 -863 0
-853 -865 0
-853 -866 0
-853 -867 0
-853 -868 0
-853 -869 0
-853 -870 0
-853 -1011 0
-853 -1012 0
-853 -1013 0
-853 -1014 0
-853 -1015 0
-853 -1016 0
-853 -1018 0
-853 -1019 0
-853 -1020 0
-854 -862 0
-854 -863 0
-854 -864 0
-854 -865 0
-854 -866 0
-854 -867 0
-854 -868 0
-854 -869 0
-854 -870 0
-854 -1011 0
-854 -1012 0
-854 -1013 0
-854 -1014 0
-854 -1015 0
-854 -1016 0
-854 -1017 0
-854 -1019 0
-854 -1020 0
-855 -861 0
-855 -862 0
-855 -863 0
-855 -864 0
-855 -865 0
-855 -867 0
-855 -868 0
-855 -870 0
-855 -1011 0
-855 -1012 0
-855 -1014 0
-855 -1015 0
-855 -1016 0
-855 -1017 0
-855 -1018 0
-855 -1020 0
-856 -861 0
-856 -862 0
-856 -863 0
-856 -864 0
-856 -865 0
-856 -866 0
-856 -868 0
-856 -869 0
-856 -870 0
-856 -1011 0
-856 -1012 0
-856 -1013 0
-856 -1015 0
-856 -1016 0
-856 -1017 0
-856 -1018 0
-856 -1019 0
-857 -861 0
-857 -862 0
-857 -863 0
-857 -864 0
-857 -865 0
-857 -866 0
-857 -867 0
-857 -869 0
-857 -870 0
-857 -1012 0
-857 -1013 0
-857 -1014 0
-857 -1015 0
-857 -1016 0
-857 -1017 0
-857 -1018 0
-857 -1019 0
-857 -1020 0
-858 -861 0
-858 -863 0
-858 -864 0
-858 -866 0
-858 -867 0
-858 -868 0
-858 -869 0
-858 -870 0
-858 -1011 0
-858 -1013 0
-858 -1014 0
-858 -1016 0
-858 -1017 0
-858 -1018 0
-858 -1019 0
-858 -1020 0
-859 -861 0
-859 -862 0
-859 -863 0
-859 -864 0
-859 -865 0
-859 -866 0
-859 -867 0
-859 -868 0
-859 -869 0
-859 -1011 0
-859 -1012 0
-859 -1013 0
-859 -1015 0
-859 -1016 0
-859 -1017 0
-859 -1018 0
-859 -1019 0
-860 -862 0
-860 -863 0
-860 -864 0
-860 -865 0
-860 -866 0
-860 -867 0
-860 -868 0
-860 -869 0
-860 -870 0
-860 -1012 0
-860 -1013 0
-860 -1014 0
-860 -1015 0
-860 -1016 0
-860 -1017 0
-860 -1018 0
-860 -1019 0
-860 -1020 0
-861 -871 0
-861 -873 0
-861 -874 0
-861 -876 0
-861 -877 0
-861 -878 0
-861 -879 0
-861 -880 0
-861 -1021 0
-861 -1023 0
-861 -1024 0
-861 -1026 0
-861 -1027 0
-861 -1028 0
-861 -1029 0
-861 -1030 0
-862 -871 0
-862 -872 0
-862 -874 0
-862 -875 0
-862 -876 0
-862 -877 0
-862 -878 0
-862 -879 0
-862 -880 0
-862 -1021 0
-862 -1022 0
-862 -1023 0
-862 -1024 0
-862 -1025 0
-862 -1027 0
-862 -1028 0
-862 -1029 0
-862 -1030 0
-863 -871 0
-863 -872 0
-863 -873 0
-863 -875 0
-863 -876 0
-863 -877 0
-863 -878 0
-863 -879 0
-863 -880 0
-863 -1021 0
-863 -1022 0
-863 -1023 0
-863 -1024 0
-863 -1025 0
-863 -1026 0
-863 -1028 0
-863 -1029 0
-863 -1030 0
-864 -872 0
-864 -873 0
-864 -874 0
-864 -875 0
-864 -876 0
-864 -877 0
-864 -878 0
-864 -879 0
-864 -880 0
-864 -1021 0
-864 -1022 0
-864 -1023 0
-864 -1024 0
-864 -1025 0
-864 -1026 0
-864 -1027 0
-864 -1029 0
-864 -1030 0
-865 -871 0
-865 -872 0
-865 -873 0
-865 -874 0
-865 -875 0
-865 -877 0
-865 -878 0
-865 -880 0
-865 -1021 0
-865 -1022 0
-865 -1024 0
-865 -1025 0
-865 -1026 0
-865 -1027 0
-865 -1028 0
-865 -1030 0
-866 -871 0
-866 -872 0
-866 -873 0
-866 -874 0
-866 -875 0
-866 -876 0
-866 -878 0
-866 -879 0
-866 -880 0
-866 -1021 0
-866 -1022 0
-866 -1023 0
-866 -1025 0
-866 -1026 0
-866 -1027 0
-866 -1028 0
-866 -1029 0
-867 -871 0
-867 -872 0
-867 -873 0
-867 -874 0
-867 -875 0
-867 -876 0
-867 -877 0
-867 -879 0
-867 -880 0
-867 -1022 0
-867 -1023 0
-867 -1024 0
-867 -1025 0
-867 -1026 0
-867 -1027 0
-867 -1028 0
-867 -1029 0
-867 -1030 0
-868 -871 0
-868 -873 0
-868 -874 0
-868 -876 0
-868 -877 0
-868 -878 0
-868 -879 0
-868 -880 0
-868 -1021 0
-868 -1023 0
-868 -1024 0
-868 -1026 0
-868 -1027 0
-868 -1028 0
-868 -1029 0
-868 -1030 0
-869 -871 0
-869 -872 0
-869 -873 0
-869 -874 0
-869 -875 0
-869 -876 0
-869 -877 0
-869 -878 0
-869 -879 0
-869 -1021 0
-869 -1022 0
-869 -1023 0
-869 -1025 0
-869 -1026 0
-869 -1027 0
-869 -1028 0
-869 -1029 0
-870 -872 0
-870 -873 0
-870 -874 0
-870 -875 0
-870 -876 0
-870 -877 0
-870 -878 0
-870 -879 0
-870 -880 0
-870 -1022 0
-870 -1023 0
-870 -1024 0
-870 -1025 0
-870 -1026 0
-870 -1027 0
-870 -1028 0
-870 -1029 0
-870 -1030 0
-871 -881 0
-871 -883 0
-871 -884 0
-871 -886 0
-871 -887 0
-871 -888 0
-871 -889 0
-871 -890 0
-871 -1031 0
-871 -1033 0
-871 -1034 0
-871 -1036 0
-871 -1037 0
-871 -1038 0
-871 -1039 0
-871 -1040 0
-872 -881 0
-872 -882 0
-872 -884 0
-872 -885 0
-872 -886 0
-872 -887 0
-872 -888 0
-872 -889 0
-872 -890 0
-872 -1031 0
-872 -1032 0
-872 -1033 0
-872 -1034 0
-872 -1035 0
-872 -1037 0
-872 -1038 0
-872 -1039 0
-872 -1040 0
-873 -881 0
-873 -882 0
-873 -883 0
-873 -885 0
-873 -886 0
-873 -887 0
-873 -888 0
-873 -889 0
-873 -890 0
-873 -1031 0
-873 -1032 0
-873 -1033 0
-873 -1034 0
-873 -1035 0
-873 -1036 0
-873 -1038 0
-873 -1039 0
-873 -1040 0
-874 -882 0
-874 -883 0
-874 -884 0
-874 -885 0
-874 -886 0
-874 -887 0
-874 -888 0
-874 -889 0
-874 -890 0
-874 -1031 0
-874 -1032 0
-874 -1033 0
-874 -1034 0
-874 -1035 0
-874 -1036 0
-874 -1037 0
-874 -1039 0
-874 -1040 0
-875 -881 0
-875 -882 0
-875 -883 0
-875 -884 0
-875 -885 0
-875 -887 0
-875 -888 0
-875 -890 0
-875 -1031 0
-875 -1032 0
-875 -1034 0
-875 -1035 0
-875 -1036 0
-875 -1037 0
-875 -1038 0
-875 -1040 0
-876 -881 0
-876 -882 0
-876 -883 0
-876 -884 0
-876 -885 0
-876 -886 0
-876 -888 0
-876 -889 0
-876 -890 0
-876 -1031 0
-876 -1032 0
-876 -1033 0
-876 -1035 0
-876 -1036 0
-876 -1037 0
-876 -1038 0
-876 -1039 0
-877 -881 0
-877 -882 0
-877 -883 0
-877 -884 0
-877 -885 0
-877 -886 0
-877 -887 0
-877 -889 0
-877 -890 0
-877 -1032 0
-877 -1033 0
-877 -1034 0
-877 -1035 0
-877 -1036 0
-877 -1037 0
-877 -1038 0
-877 -1039 0
-877 -1040 0
-878 -881 0
-878 -883 0
-878 -884 0
-878 -886 0
-878 -887 0
-878 -888 0
-878 -889 0
-878 -890 0
-878 -1031 0
-878 -1033 0
-878 -1034 0
-878 -1036 0
-878 -1037 0
-878 -1038 0
-878 -1039 0
-878 -1040 0
-879 -881 0
-879 -882 0
-879 -883 0
-879 -884 0
-879 -885 0
-879 -886 0
-879 -887 0
-879 -888 0
-879 -889 0
-879 -1031 0
-879 -1032 0
-879 -1033 0
-879 -1035 0
-879 -1036 0
-879 -1037 0
-879 -1038 0
-879 -1039 0
-880 -882 0
-880 -883 0
-880 -884 0
-880 -885 0
-880 -886 0
-880 -887 0
-880 -888 0
-880 -889 0
-880 -890 0
-880 -1032 0
-880 -1033 0
-880 -1034 0
-880 -1035 0
-880 -1036 0
-880 -1037 0
-880 -1038 0
-880 -1039 0
-880 -1040 0
-881 -891 0
-881 -893 0
-881 -894 0
-881 -896 0
-881 -897 0
-881 -898 0
-881 -899 0
-881 -900 0
-881 -1041 0
-881 -1043 0
-881 -1044 0
-881 -1046 0
-881 -1047 0
-881 -1048 0
-881 -1049 0
-881 -1050 0
-882 -891 0
-882 -892 0
-882 -894 0
-882 -895 0
-882 -896 0
-882 -897 0
-882 -898 0
-882 -899 0
-882 -900 0
-882 -1041 0
-882 -1042 0
-882 -1043 0
-882 -1044 0
-882 -1045 0
-882 -1047 0
-882 -1048 0
-882 -1049 0
-882 -1050 0
-883 -891 0
-883 -892 0
-883 -893 0
-883 -895 0
-883 -896 0
-883 -897 0
-883 -898 0
-883 -899 0
-883 -900 0
-883 -1041 0
-883 -1042 0
-883 -1043 0
-883 -1044 0
-883 -1045 0
-883 -1046 0
-883 -1048 0
-883 -1049 0
-883 -1050 0
-884 -892 0
-884 -893 0
-884 -894 0
-884 -895 0
-884 -896 0
-884 -897 0
-884 -898 0
-884 -899 0
-884 -900 0
-884 -1041 0
-884 -1042 0
-884 -1043 0
-884 -1044 0
-884 -1045 0
-884 -1046 0
-884 -1047 0
-884 -1049 0
-884 -1050 0
-885 -891 0
-885 -892 0
-885 -893 0
-885 -894 0
-885 -895 0
-885 -897 0
-885 -898 0
-885 -900 0
-885 -1041 0
-885 -1042 0
-885 -1044 0
-885 -1045 0
-885 -1046 0
-885 -1047 0
-885 -1048 0
-885 -1050 0
-886 -891 0
-886 -892 0
-886 -893 0
-886 -894 0
-886 -895 0
-886 -896 0
-886 -898 0
-886 -899 0
-886 -900 0
-886 -1041 0
-886 -1042 0
-886 -1043 0
-886 -1045 0
-886 -1046 0
-886 -1047 0
-886 -1048 0
-886 -1049 0
-887 -891 0
-887 -892 0
-887 -893 0
-887 -894 0
-887 -895 0
-887 -896 0
-887 -897 0
-887 -899 0
-887 -900 0
-887 -1042 0
-887 -1043 0
-887 -1044 0
-887 -1045 0
-887 -1046 0
-887 -1047 0
-887 -1048 0
-887 -1049 0
-887 -1050 0
-888 -891 0
-888 -893 0
-888 -894 0
-888 -896 0
-888 -897 0
-888 -898 0
-888 -899 0
-888 -900 0
-888 -1041 0
-888 -1043 0
-888 -1044 0
-888 -1046 0
-888 -1047 0
-888 -1048 0
-888 -1049 0
-888 -1050 0
-889 -891 0
-889 -892 0
-889 -893 0
-889 -894 0
-889 -895 0
-889 -896 0
-889 -897 0
-889 -898 0
-889 -899 0
-889 -1041 0
-889 -1042 0
-889 -1043 0
-889 -1045 0
-889 -1046 0
-889 -1047 0
-889 -1048 0
-889 -1049 0
-890 -892 0
-890 -893 0
-890 -894 0
-890 -895 0
-890 -896 0
-890 -897 0
-890 -898 0
-890 -899 0
-890 -900 0
-890 -1042 0
-890 -1043 0
-890 -1044 0
-890 -1045 0
-890 -1046 0
-890 -1047 0
-890 -1048 0
-890 -1049 0
-890 -1050 0
-891 -901 0
-891 -903 0
-891 -904 0
-891 -906 0
-891 -907 0
-891 -908 0
-891 -909 0
-891 -910 0
-891 -1051 0
-891 -1053 0
-891 -1054 0
-891 -1056 0
-891 -1057 0
-891 -1058 0
-891 -1059 0
-891 -1060 0
-892 -901 0
-892 -902 0
-892 -904 0
-892 -905 0
-892 -906 0
-892 -907 0
-892 -908 0
-892 -909 0
-892 -910 0
-892 -1051 0
-892 -1052 0
-892 -1053 0
-892 -1054 0
-892 -1055 0
-892 -1057 0
-892 -1058 0
-892 -1059 0
-892 -1060 0
-893 -901 0
-893 -902 0
-893 -903 0
-893 -905 0
-893 -906 0
-893 -907 0
-893 -908 0
-893 -909 0
-893 -910 0
-893 -1051 0
-893 -1052 0
-893 -1053 0
-893 -1054 0
-893 -1055 0
-893 -1056 0
-893 -1058 0
-893 -1059 0
-893 -1060 0
-894 -902 0
-894 -903 0
-894 -904 0
-894 -905 0
-894 -906 0
-894 -907 0
-894 -908 0
-894 -909 0
-894 -910 0
-894 -1051 0
-894 -1052 0
-894 -1053 0
-894 -1054 0
-894 -1055 0
-894 -1056 0
-894 -1057 0
-894 -1059 0
-894 -1060 0
-895 -901 0
-895 -902 0
-895 -903 0
-895 -904 0
-895 -905 0
-895 -907 0
-895 -908 0
-895 -910 0
-895 -1051 0
-895 -1052 0
-895 -1054 0
-895 -1055 0
-895 -1056 0
-895 -1057 0
-895 -1058 0
-895 -1060 0
-896 -901 0
-896 -902 0
-896 -903 0
-896 -904 0
-896 -905 0
-896 -906 0
-896 -908 0
-896 -909 0
-896 -910 0
-896 -1051 0
-896 -1052 0
-896 -1053 0
-896 -1055 0
-896 -1056 0
-896 -1057 0
-896 -1058 0
-896 -1059 0
-897 -901 0
-897 -902 0
-897 -903 0
-897 -904 0
-897 -905 0
-897 -906 0
-897 -907 0
-897 -909 0
-897 -910 0
-897 -1052 0
-897 -1053 0
-897 -1054 0
-897 -1055 0
-897 -1056 0
-897 -1057 0
-897 -1058 0
-897 -1059 0
-897 -1060 0
-898 -901 0
-898 -903 0
-898 -904 0
-898 -906 0
-898 -907 0
-898 -908 0
-898 -909 0
-898 -910 0
-898 -1051 0
-898 -1053 0
-898 -1054 0
-898 -1056 0
-898 -1057 0
-898 -1058 0
-898 -1059 0
-898 -1060 0
-899 -901 0
-899 -902 0
-899 -903 0
-899 -904 0
-899 -905 0
-899 -906 0
-899 -907 0
-899 -908 0
-899 -909 0
-899 -1051 0
-899 -1052 0
-899 -1053 0
-899 -1055 0
-899 -1056 0
-899 -1057 0
-899 -1058 0
-899 -1059 0
-900 -902 0
-900 -903 0
-900 -904 0
-900 -905 0
-900 -906 0
-900 -907 0
-900 -908 0
-900 -909 0
-900 -910 0
-900 -1052 0
-900 -1053 0
-900 -1054 0
-900 -1055 0
-900 -1056 0
-900 -1057 0
-900 -1058 0
-900 -1059 0
-900 -1060 0
-901 -911 0
-901 -913 0
-901 -914 0
-901 -916 0
-901 -917 0
-901 -918 0
-901 -919 0
-901 -920 0
-901 -1061 0
-901 -1063 0
-901 -1064 0
-901 -1066 0
-901 -1067 0
-901 -1068 0
-901 -1069 0
-901 -1070 0
-902 -911 0
-902 -912 0
-902 -914 0
-902 -915 0
-902 -916 0
-902 -917 0
-902 -918 0
-902 -919 0
-902 -920 0
-902 -1061 0
-902 -1062 0
-902 -1063 0
-902 -1064 0
-902 -1065 0
-902 -1067 0
-902 -1068 0
-902 -1069 0
-902 -1070 0
-903 -911 0
-903 -912 0
-903 -913 0
-903 -915 0
-903 -916 0
-903 -917 0
-903 -918 0
-903 -919 0
-903 -920 0
-903 -1061 0
-903 -1062 0
-903 -1063 0
-903 -1064 0
-903 -1065 0
-903 -1066 0
-903 -1068 0
-903 -1069 0
-903 -1070 0
-904 -912 0
-904 -913 0
-904 -914 0
-904 -915 0
-904 -916 0
-904 -917 0
-904 -918 0
-904 -919 0
-904 -920 0
-904 -1061 0
-904 -1062 0
-904 -1063 0
-904 -1064 0
-904 -1065 0
-904 -1066 0
-904 -1067 0
-904 -1069 0
-904 -1070 0
-905 -911 0
-905 -912 0
-905 -913 0
-905 -914 0
-905 -915 0
-905 -917 0
-905 -918 0
-905 -920 0
-905 -1061 0
-905 -1062 0
-905 -1064 0
-905 -1065 0
-905 -1066 0
-905 -1067 0
-905 -1068 0
-905 -1070 0
-906 -911 0
-906 -912 0
-906 -913 0
-906 -914 0
-906 -915 0
-906 -916 0
-906 -918 0
-906 -919 0
-906 -920 0
-906 -1061 0
-906 -1062 0
-906 -1063 0
-906 -1065 0
-906 -1066 0
-906 -1067 0
-906 -1068 0
-906 -1069 0
-907 -911 0
-907 -912 0
-907 -913 0
-907 -914 0
-907 -915 0
-907 -916 0
-907 -917 0
-907 -919 0
-907 -920 0
-907 -1062 0
-907 -1063 0
-907 -1064 0
-907 -1065 0
-907 -1066 0
-907 -1067 0
-907 -1068 0
-907 -1069 0
-907 -1070 0
-908 -911 0
-908 -913 0
-908 -914 0
-908 -916 0
-908 -917 0
-908 -918 0
-908 -919 0
-908 -920 0
-908 -1061 0
-908 -1063 0
-908 -1064 0
-908 -1066 0
-908 -1067 0
-908 -1068 0
-908 -1069 0
-908 -1070 0
-909 -911 0
-909 -912 0
-909 -913 0
-909 -914 0
-909 -915 0
-909 -916 0
-909 -917 0
-909 -918 0
-909 -919 0
-909 -1061 0
-909 -1062 0
-909 -1063 0
-909 -1065 0
-909 -1066 0
-909 -1067 0
-909 -1068 0
-909 -1069 0
-910 -912 0
-910 -913 0
-910 -914 0
-910 -915 0
-910 -916 0
-910 -917 0
-910 -918 0
-910 -919 0
-910 -920 0
-910 -1062 0
-910 -1063 0
-910 -1064 0
-910 -1065 0
-910 -1066 0
-910 -1067 0
-910 -1068 0
-910 -1069 0
-910 -1070 0
-911 -921 0
-911 -923 0
-911 -924 0
-911 -926 0
-911 -927 0
-911 -928 0
-911 -929 0
-911 -930 0
-911 -1071 0
-911 -1073 0
-911 -1074 0
-911 -1076 0
-911 -1077 0
-911 -1078 0
-911 -1079 0
-911 -1080 0
-912 -921 0
-912 -922 0
-912 -924 0
-912 -925 0
-912 -926 0
-912 -927 0
-912 -928 0
-912 -929 0
-912 -930 0
-912 -1071 0
-912 -1072 0
-912 -1073 0
-912 -1074 0
-912 -1075 0
-912 -1077 0
-912 -1078 0
-912 -1079 0
-912 -1080 0
-913 -921 0
-913 -922 0
-913 -923 0
-913 -925 0
-913 -926 0
-913 -927 0
-913 -928 0
-913 -929 0
-913 -930 0
-913 -1071 0
-913 -1072 0
-913 -1073 0
-913 -1074 0
-913 -1075 0
-913 -1076 0
-913 -1078 0
-913 -1079 0
-913 -1080 0
-914 -922 0
-914 -923 0
-914 -924 0
-914 -925 0
-914 -926 0
-914 -927 0
-914 -928 0
-914 -929 0
-914 -930 0
-914 -1071 0
-914 -1072 0
-914 -1073 0
-914 -1074 0
-914 -1075 0
-914 -1076 0
-914 -1077 0
-914 -1079 0
-914 -1080 0
-915 -921 0
-915 -922 0
-915 -923 0
-915 -924 0
-915 -925 0
-915 -927 0
-915 -928 0
-915 -930 0
-915 -1071 0
-915 -1072 0
-915 -1074 0
-915 -1075 0
-915 -1076 0
-915 -1077 0
-915 -1078 0
-915 -1080 0
-916 -921 0
-916 -922 0
-916 -923 0
-916 -924 0
-916 -925 0
-916 -926 0
-916 -928 0
-916 -929 0
-916 -930 0
-916 -1071 0
-916 -1072 0
-916 -1073 0
-916 -1075 0
-916 -1076 0
-916 -1077 0
-916 -1078 0
-916 -1079 0
-917 -921 0
-917 -922 0
-917 -923 0
-917 -924 0
-917 -925 0
-917 -926 0
-917 -927 0
-917 -929 0
-917 -930 0
-917 -1072 0
-917 -1073 0
-917 -1074 0
-917 -1075 0
-917 -1076 0
-917 -1077 0
-917 -1078 0
-917 -1079 0
-917 -1080 0
-918 -921 0
-918 -923 0
-918 -924 0
-918 -926 0
-918 -927 0
-918 -928 0
-918 -929 0
-918 -930 0
-918 -1071 0
-918 -1073 0
-918 -1074 0
-918 -1076 0
-918 -1077 0
-918 -1078 0
-918 -1079 0
-918 -1080 0
-919 -921 0
-919 -922 0
-919 -923 0
-919 -924 0
-919 -925 0
-919 -926 0
-919 -927 0
-919 -928 0
-919 -929 0
-919 -1071 0
-919 -1072 0
-919 -1073 0
-919 -1075 0
-919 -1076 0
-919 -1077 0
-919 -1078 0
-919 -1079 0
-920 -922 0
-920 -923 0
-920 -924 0
-920 -925 0
-920 -926 0
-920 -927 0
-920 -928 0
-920 -929 0
-920 -930 0
-920 -1072 0
-920 -1073 0
-920 -1074 0
-920 -1075 0
-920 -1076 0
-920 -1077 0
-920 -1078 0
-920 -1079 0
-920 -1080 0
-921 -931 0
-921 -933 0
-921 -934 0
-921 -936 0
-921 -937 0
-921 -938 0
-921 -939 0
-921 -940 0
-921 -1081 0
-921 -1083 0
-921 -1084 0
-921 -1086 0
-921 -1087 0
-921 -1088 0
-921 -1089 0
-921 -1090 0
-922 -931 0
-922 -932 0
-922 -934 0
-922 -935 0
-922 -936 0
-922 -937 0
-922 -938 0
-922 -939 0
-922 -940 0
-922 -1081 0
-922 -1082 0
-922 -1083 0
-922 -1084 0
-922 -1085 0
-922 -1087 0
-922 -1088 0
-922 -1089 0
-922 -1090 0
-923 -931 0
-923 -932 0
-923 -933 0
-923 -935 0
-923 -936 0
-923 -937 0
-923 -938 0
-923 -939 0
-923 -940 0
-923 -1081 0
-923 -1082 0
-923 -1083 0
-923 -1084 0
-923 -1085 0
-923 -1086 0
-923 -1088 0
-923 -1089 0
-923 -1090 0
-924 -932 0
-924 -933 0
-924 -934 0
-924 -935 0
-924 -936 0
-924 -937 0
-924 -938 0
-924 -939 0
-924 -940 0
-924 -1081 0
-924 -1082 0
-924 -1083 0
-924 -1084 0
-924 -1085 0
-924 -1086 0
-924 -1087 0
-924 -1089 0
-924 -1090 0
-925 -931 0
-925 -932 0
-925 -933 0
-925 -934 0
-925 -935 0
-925 -937 0
-925 -938 0
-925 -940 0
-925 -1081 0
-925 -1082 0
-925 -1084 0
-925 -1085 0
-925 -1086 0
-925 -1087 0
-925 -1088 0
-925 -1090 0
-926 -931 0
-926 -932 0
-926 -933 0
-926 -934 0
-926 -935 0
-926 -936 0
-926 -938 0
-926 -939 0
-926 -940 0
-926 -1081 0
-926 -1082 0
-926 -1083 0
-926 -1085 0
-926 -1086 0
-926 -1087 0
-926 -1088 0
-926 -1089 0
-927 -931 0
-927 -932 0
-927 -933 0
-927 -934 0
-927 -935 0
-927 -936 0
-927 -937 0
-927 -939 0
-927 -940 0
-927 -1082 0
-927 -1083 0
-927 -1084 0
-927 -1085 0
-927 -1086 0
-927 -1087 0
-927 -1088 0
-927 -1089 0
-927 -1090 0
-928 -931 0
-928 -933 0
-928 -934 0
-928 -936 0
-928 -937 0
-928 -938 0
-928 -939 0
-928 -940 0
-928 -1081 0
-928 -1083 0
-928 -1084 0
-928 -1086 0
-928 -1087 0
-928 -1088 0
-928 -1089 0
-928 -1090 0
-929 -931 0
-929 -932 0
-929 -933 0
-929 -934 0
-929 -935 0
-929 -936 0
-929 -937 0
-929 -938 0
-929 -939 0
-929 -1081 0
-929 -1082 0
-929 -1083 0
-929 -1085 0
-929 -1086 0
-929 -1087 0
-929 -1088 0
-929 -1089 0
-930 -932 0
-930 -933 0
-930 -934 0
-930 -935 0
-930 -936 0
-930 -937 0
-930 -938 0
-930 -939 0
-930 -940 0
-930 -1082 0
-930 -1083 0
-930 -1084 0
-930 -1085 0
-930 -1086 0
-930 -1087 0
-930 -1088 0
-930 -1089 0
-930 -1090 0
-931 -941 0
-931 -943 0
-931 -944 0
-931 -946 0
-931 -947 0
-931 -948 0
-931 -949 0
-931 -950 0
-931 -1091 0
-931 -1093 0
-931 -1094 0
-931 -1096 0
-931 -1097 0
-931 -1098 0
-931 -1099 0
-931 -1100 0
-932 -941 0
-932 -942 0
-932 -944 0
-932 -945 0
-932 -946 0
-932 -947 0
-932 -948 0
-932 -949 0
-932 -950 0
-932 -1091 0
-932 -1092 0
-932 -1093 0
-932 -1094 0
-932 -1095 0
-932 -1097 0
-932 -1098 0
-932 -1099 0
-932 -1100 0
-933 -941 0
-933 -942 0
-933 -943 0
-933 -945 0
-933 -946 0
-933 -947 0
-933 -948 0
-933 -949 0
-933 -950 0
-933 -1091 0
-933 -1092 0
-933 -1093 0
-933 -1094 0
-933 -1095 0
-933 -1096 0
-933 -1098 0
-933 -1099 0
-933 -1100 0
-934 -942 0
-934 -943 0
-934 -944 0
-934 -945 0
-934 -946 0
-934 -947 0
-934 -948 0
-934 -949 0
-934 -950 0
-934 -1091 0
-934 -1092 0
-934 -1093 0
-934 -1094 0
-934 -1095 0
-934 -1096 0
-934 -1097 0
-934 -1099 0
-934 -1100 0
-935 -941 0
-935 -942 0
-935 -943 0
-935 -944 0
-935 -945 0
-935 -947 0
-935 -948 0
-935 -950 0
-935 -1091 0
-935 -1092 0
-935 -1094 0
-935 -1095 0
-935 -1096 0
-935 -1097 0
-935 -1098 0
-935 -1100 0
-936 -941 0
-936 -942 0
-936 -943 0
-936 -944 0
-936 -945 0
-936 -946 0
-936 -948 0
-936 -949 0
-936 -950 0
-936 -1091 0
-936 -1092 0
-936 -1093 0
-936 -1095 0
-936 -1096 0
-936 -1097 0
-936 -1098 0
-936 -1099 0
-937 -941 0
-937 -942 0
-937 -943 0
-937 -944 0
-937 -945 0
-937 -946 0
-937 -947 0
-937 -949 0
-937 -950 0
-937 -1092 0
-937 -1093 0
-937 -1094 0
-937 -1095 0
-937 -1096 0
-937 -1097 0
-937 -1098 0
-937 -1099 0
-937 -1100 0
-938 -941 0
-938 -943 0
-938 -944 0
-938 -946 0
-938 -947 0
-938 -948 0
-938 -949 0
-938 -950 0
-938 -1091 0
-938 -1093 0
-938 -1094 0
-938 -1096 0
-938 -1097 0
-938 -1098 0
-938 -1099 0
-938 -1100 0
-939 -941 0
-939 -942 0
-939 -943 0
-939 -944 0
-939 -945 0
-939 -946 0
-939 -947 0
-939 -948 0
-939 -949 0
-939 -1091 0
-939 -1092 0
-939 -1093 0
-939 -1095 0
-939 -1096 0
-939 -1097 0
-939 -1098 0
-939 -1099 0
-940 -942 0
-940 -943 0
-940 -944 0
-940 -945 0
-940 -946 0
-940 -947 0
-940 -948 0
-940 -949 0
-940 -950 0
-940 -1092 0
-940 -1093 0
-940 -1094 0
-940 -1095 0
-940 -1096 0
-940 -1097 0
-940 -1098 0
-940 -1099 0
-940 -1100 0
-941 -951 0
-941 -953 0
-941 -954 0
-941 -956 0
-941 -957 0
-941 -958 0
-941 -959 0
-941 -960 0
-941 -1101 0
-941 -1103 0
-941 -1104 0
-941 -1106 0
-941 -1107 0
-941 -1108 0
-941 -1109 0
-941 -1110 0
-942 -951 0
-942 -952 0
-942 -954 0
-942 -955 0
-942 -956 0
-942 -957 0
-942 -958 0
-942 -959 0
-942 -960 0
-942 -1101 0
-942 -1102 0
-942 -1103 0
-942 -1104 0
-942 -1105 0
-942 -1107 0
-942 -1108 0
-942 -1109 0
-942 -1110 0
-943 -951 0
-943 -952 0
-943 -953 0
-943 -955 0
-943 -956 0
-943 -957 0
-943 -958 0
-943 -959 0
-943 -960 0
-943 -1101 0
-943 -1102 0
-943 -1103 0
-943 -1104 0
-943 -1105 0
-943 -1106 0
-943 -1108 0
-943 -1109 0
-943 -1110 0
-944 -952 0
-944 -953 0
-944 -954 0
-944 -955 0
-944 -956 0
-944 -957 0
-944 -958 0
-944 -959 0
-944 -960 0
-944 -1101 0
-944 -1102 0
-944 -1103 0
-944 -1104 0
-944 -1105 0
-944 -1106 0
-944 -1107 0
-944 -1109 0
-944 -1110 0
-945 -951 0
-945 -952 0
-945 -953 0
-945 -954 0
-945 -955 0
-945 -957 0
-945 -958 0
-945 -960 0
-945 -1101 0
-945 -1102 0
-945 -1104 0
-945 -1105 0
-945 -1106 0
-945 -1107 0
-945 -1108 0
-945 -1110 0
-946 -951 0
-946 -952 0
-946 -953 0
-946 -954 0
-946 -955 0
-946 -956 0
-946 -958 0
-946 -959 0
-946 -960 0
-946 -1101 0
-946 -1102 0
-946 -1103 0
-946 -1105 0
-946 -1106 0
-946 -1107 0
-946 -1108 0
-946 -1109 0
-947 -951 0
-947 -952 0
-947 -953 0
-947 -954 0
-947 -955 0
-947 -956 0
-947 -957 0
-947 -959 0
-947 -960 0
-947 -1102 0
-947 -1103 0
-947 -1104 0
-947 -1105 0
-947 -1106 0
-947 -1107 0
-947 -1108 0
-947 -1109 0
-947 -1110 0
-948 -951 0
-948 -953 0
-948 -954 0
-948 -956 0
-948 -957 0
-948 -958 0
-948 -959 0
-948 -960 0
-948 -1101 0
-948 -1103 0
-948 -1104 0
-948 -1106 0
-948 -1107 0
-948 -1108 0
-948 -1109 0
-948 -1110 0
-949 -951 0
-949 -952 0
-949 -953 0
-949 -954 0
-949 -955 0
-949 -956 0
-949 -957 0
-949 -958 0
-949 -959 0
-949 -1101 0
-949 -1102 0
-949 -1103 0
-949 -1105 0
-949 -1106 0
-949 -1107 0
-949 -1108 0
-949 -1109 0
-950 -952 0
-950 -953 0
-950 -954 0
-950 -955 0
-950 -956 0
-950 -957 0
-950 -958 0
-950 -959 0
-950 -960 0
-950 -1102 0
-950 -1103 0
-950 -1104 0
-950 -1105 0
-950 -1106 0
-950 -1107 0
-950 -1108 0
-950 -1109 0
-950 -1110 0
-951 -1111 0
-951 -1113 0
-951 -1114 0
-951 -1116 0
-951 -1117 0
-951 -1118 0
-951 -1119 0
-951 -1120 0
-952 -1111 0
-952 -1112 0
-952 -1113 0
-952 -1114 0
-952 -1115 0
-952 -1117 0
-952 -1118 0
-952 -1119 0
-952 -1120 0
-953 -1111 0
-953 -1112 0
-953 -1113 0
-953 -1114 0
-953 -1115 0
-953 -1116 0
-953 -1118 0
-953 -1119 0
-953 -1120 0
-954 -1111 0
-954 -1112 0
-954 -1113 0
-954 -1114 0
-954 -1115 0
-954 -1116 0
-954 -1117 0
-954 -1119 0
-954 -1120 0
-955 -1111 0
-955 -1112 0
-955 -1114 0
-955 -1115 0
-955 -1116 0
-955 -1117 0
-955 -1118 0
-955 -1120 0
-956 -1111 0
-956 -1112 0
-956 -1113 0
-956 -1115 0
-956 -1116 0
-956 -1117 0
-956 -1118 0
-956 -1119 0
-957 -1112 0
-957 -1113 0
-957 -1114 0
-957 -1115 0
-957 -1116 0
-957 -1117 0
-957 -1118 0
-957 -1119 0
-957 -1120 0
-958 -1111 0
-958 -1113 0
-958 -1114 0
-958 -1116 0
-958 -1117 0
-958 -1118 0
-958 -1119 0
-958 -1120 0
-959 -1111 0
-959 -1112 0
-959 -1113 0
-959 -1115 0
-959 -1116 0
-959 -1117 0
-959 -1118 0
-959 -1119 0
-960 -1112 0
-960 -1113 0
-960 -1114 0
-960 -1115 0
-960 -1116 0
-960 -1117 0
-960 -1118 0
-960 -1119 0
-960 -1120 0
-961 -971 0
-961 -973 0
-961 -974 0
-961 -976 0
-961 -977 0
-961 -978 0
-961 -979 0
-961 -980 0
-961 -1121 0
-961 -1123 0
-961 -1124 0
-961 -1126 0
-961 -1127 0
-961 -1128 0
-961 -1129 0
-961 -1130 0
-962 -971 0
-962 -972 0
-962 -974 0
-962 -975 0
-962 -976 0
-962 -977 0
-962 -978 0
-962 -979 0
-962 -980 0
-962 -1121 0
-962 -1122 0
-962 -1123 0
-962 -1124 0
-962 -1125 0
-962 -1127 0
-962 -1128 0
-962 -1129 0
-962 -1130 0
-963 -971 0
-963 -972 0
-963 -973 0
-963 -975 0
-963 -976 0
-963 -977 0
-963 -978 0
-963 -979 0
-963 -980 0
-963 -1121 0
-963 -1122 0
-963 -1123 0
-963 -1124 0
-963 -1125 0
-963 -1126 0
-963 -1128 0
-963 -1129 0
-963 -1130 0
-964 -972 0
-964 -973 0
-964 -974 0
-964 -975 0
-964 -976 0
-964 -977 0
-964 -978 0
-964 -979 0
-964 -980 0
-964 -1121 0
-964 -1122 0
-964 -1123 0
-964 -1124 0
-964 -1125 0
-964 -1126 0
-964 -1127 0
-964 -1129 0
-964 -1130 0
-965 -971 0
-965 -972 0
-965 -973 0
-965 -974 0
-965 -975 0
-965 -977 0
-965 -978 0
-965 -980 0
-965 -1121 0
-965 -1122 0
-965 -1124 0
-965 -1125 0
-965 -1126 0
-965 -1127 0
-965 -1128 0
-965 -1130 0
-966 -971 0
-966 -972 0
-966 -973 0
-966 -974 0
-966 -975 0
-966 -976 0
-966 -978 0
-966 -979 0
-966 -980 0
-966 -1121 0
-966 -1122 0
-966 -1123 0
-966 -1125 0
-966 -1126 0
-966 -1127 0
-966 -1128 0
-966 -1129 0
-967 -971 0
-967 -972 0
-967 -973 0
-967 -974 0
-967 -975 0
-967 -976 0
-967 -977 0
-967 -979 0
-967 -980 0
-967 -1122 0
-967 -1123 0
-967 -1124 0
-967 -1125 0
-967 -1126 0
-967 -1127 0
-967 -1128 0
-967 -1129 0
-967 -1130 0
-968 -971 0
-968 -973 0
-968 -974 0
-968 -976 0
-968 -977 0
-968 -978 0
-968 -979 0
-968 -980 0
-968 -1121 0
-968 -1123 0
-968 -1124 0
-968 -1126 0
-968 -1127 0
-968 -1128 0
-968 -1129 0
-968 -1130 0
-969 -971 0
-969 -972 0
-969 -973 0
-969 -974 0
-969 -975 0
-969 -976 0
-969 -977 0
-969 -978 0
-969 -979 0
-969 -1121 0
-969 -1122 0
-969 -1123 0
-969 -1125 0
-969 -1126 0
-969 -1127 0
-969 -1128 0
-969 -1129 0
-970 -972 0
-970 -973 0
-970 -974 0
-970 -975 0
-970 -976 0
-970 -977 0
-970 -978 0
-970 -979 0
-970 -980 0
-970 -1122 0
-970 -1123 0
-970 -1124 0
-970 -1125 0
-970 -1126 0
-970 -1127 0
-970 -1128 0
-970 -1129 0
-970 -1130 0
-971 -981 0
-971 -983 0
-971 -984 0
-971 -986 0
-971 -987 0
-971 -988 0
-971 -989 0
-971 -990 0
-971 -1131 0
-971 -1133 0
-971 -1134 0
-971 -1136 0
-971 -1137 0
-971 -1138 0
-971 -1139 0
-971 -1140 0
-972 -981 0
-972 -982 0
-972 -984 0
-972 -985 0
-972 -986 0
-972 -987 0
-972 -988 0
-972 -989 0
-972 -990 0
-972 -1131 0
-972 -1132 0
-972 -1133 0
-972 -1134 0
-972 -1135 0
-972 -1137 0
-972 -1138 0
-972 -1139 0
-972 -1140 0
-973 -981 0
-973 -982 0
-973 -983 0
-973 -985 0
-973 -986 0
-973 -987 0
-973 -988 0
-973 -989 0
-973 -990 0
-973 -1131 0
-973 -1132 0
-973 -1133 0
-973 -1134 0
-973 -1135 0
-973 -1136 0
-973 -1138 0
-973 -1139 0
-973 -1140 0
-974 -982 0
-974 -983 0
-974 -984 0
-974 -985 0
-974 -986 0
-974 -987 0
-974 -988 0
-974 -989 0
-974 -990 0
-974 -1131 0
-974 -1132 0
-974 -1133 0
-974 -1134 0
-974 -1135 0
-974 -1136 0
-974 -1137 0
-974 -1139 0
-974 -1140 0
-975 -981 0
-975 -982 0
-975 -983 0
-975 -984 0
-975 -985 0
-975 -987 0
-975 -988 0
-975 -990 0
-975 -1131 0
-975 -1132 0
-975 -1134 0
-975 -1135 0
-975 -1136 0
-975 -1137 0
-975 -1138 0
-975 -1140 0
-976 -981 0
-976 -982 0
-976 -983 0
-976 -984 0
-976 -985 0
-976 -986 0
-976 -988 0
-976 -989 0
-976 -990 0
-976 -1131 0
-976 -1132 0
-976 -1133 0
-976 -1135 0
-976 -1136 0
-976 -1137 0
-976 -1138 0
-976 -1139 0
-977 -981 0
-977 -982 0
-977 -983 0
-977 -984 0
-977 -985 0
-977 -986 0
-977 -987 0
-977 -989 0
-977 -990 0
-977 -1132 0
-977 -1133 0
-977 -1134 0
-977 -1135 0
-977 -1136 0
-977 -1137 0
-977 -1138 0
-977 -1139 0
-977 -1140 0
-978 -981 0
-978 -983 0
-978 -984 0
-978 -986 0
-978 -987 0
-978 -988 0
-978 -989 0
-978 -990 0
-978 -1131 0
-978 -1133 0
-978 -1134 0
-978 -1136 0
-978 -1137 0
-978 -1138 0
-978 -1139 0
-978 -1140 0
-979 -981 0
-979 -982 0
-979 -983 0
-979 -984 0
-979 -985 0
-979 -986 0
-979 -987 0
-979 -988 0
-979 -989 0
-979 -1131 0
-979 -1132 0
-979 -1133 0
-979 -1135 0
-979 -1136 0
-979 -1137 0
-979 -1138 0
-979 -1139 0
-980 -982 0
-980 -983 0
-980 -984 0
-980 -985 0
-980 -986 0
-980 -987 0
-980 -988 0
-980 -989 0
-980 -990 0
-980 -1132 0
-980 -1133 0
-980 -1134 0
-980 -1135 0
-980 -1136 0
-980 -1137 0
-980 -1138 0
-980 -1139 0
-980 -1140 0
-981 -991 0
-981 -993 0
-981 -994 0
-981 -996 0
-981 -997 0
-981 -998 0
-981 -999 0
-981 -1000 0
-981 -1141 0
-981 -1143 0
-981 -1144 0
-981 -1146 0
-981 -1147 0
-981 -1148 0
-981 -1149 0
-981 -1150 0
-982 -991 0
-982 -992 0
-982 -994 0
-982 -995 0
-982 -996 0
-982 -997 0
-982 -998 0
-982 -999 0
-982 -1000 0
-982 -1141 0
-982 -1142 0
-982 -1143 0
-982 -1144 0
-982 -1145 0
-982 -1147 0
-982 -1148 0
-982 -1149 0
-982 -1150 0
-983 -991 0
-983 -992 0
-983 -993 0
-983 -995 0
-983 -996 0
-983 -997 0
-983 -998 0
-983 -999 0
-983 -1000 0
-983 -1141 0
-983 -1142 0
-983 -1143 0
-983 -1144 0
-983 -1145 0
-983 -1146 0
-983 -1148 0
-983 -1149 0
-983 -1150 0
-984 -992 0
-984 -993 0
-984 -994 0
-984 -995 0
-984 -996 0
-984 -997 0
-984 -998 0
-984 -999 0
-984 -1000 0
-984 -1141 0
-984 -1142 0
-984 -1143 0
-984 -1144 0
-984 -1145 0
-984 -1146 0
-984 -1147 0
-984 -1149 0
-984 -1150 0
-985 -991 0
-985 -992 0
-985 -993 0
-985 -994 0
-985 -995 0
-985 -997 0
-985 -998 0
-985 -1000 0
-985 -1141 0
-985 -1142 0
-985 -1144 0
-985 -1145 0
-985 -1146 0
-985 -1147 0
-985 -1148 0
-985 -1150 0
-986 -991 0
-986 -992 0
-986 -993 0
-986 -994 0
-986 -995 0
-986 -996 0
-986 -998 0
-986 -999 0
-986 -1000 0
-986 -1141 0
-986 -1142 0
-986 -1143 0
-986 -1145 0
-986 -1146 0
-986 -1147 0
-986 -1148 0
-986 -1149 0
-987 -991 0
-987 -992 0
-987 -993 0
-987 -994 0
-987 -995 0
-987 -996 0
-987 -997 0
-987 -999 0
-987 -1000 0
-987 -1142 0
-987 -1143 0
-987 -1144 0
-987 -1145 0
-987 -1146 0
-987 -1147 0
-987 -1148 0
-987 -1149 0
-987 -1150 0
-988 -991 0
-988 -993 0
-988 -994 0
-988 -996 0
-988 -997 0
-988 -998 0
-988 -999 0
-988 -1000 0
-988 -1141 0
-988 -1143 0
-988 -1144 0
-988 -1146 0
-988 -1147 0
-988 -1148 0
-988 -1149 0
-988 -1150 0
-989 -991 0
-989 -992 0
-989 -993 0
-989 -994 0
-989 -995 0
-989 -996 0
-989 -997 0
-989 -998 0
-989 -999 0
-989 -1141 0
-989 -1142 0
-989 -1143 0
-989 -1145 0
-989 -1146 0
-989 -1147 0
-989 -1148 0
-989 -1149 0
-990 -992 0
-990 -993 0
-990 -994 0
-990 -995 0
-990 -996 0
-990 -997 0
-990 -998 0
-990 -999 0
-990 -1000 0
-990 -1142 0
-990 -1143 0
-990 -1144 0
-990 -1145 0
-990 -1146 0
-990 -1147 0
-990 -1148 0
-990 -1149 0
-990 -1150 0
-991 -1001 0
-991 -1003 0
-991 -1004 0
-991 -1006 0
-991 -1007 0
-991 -1008 0
-991 -1009 0
-991 -1010 0
-991 -1151 0
-991 -1153 0
-991 -1154 0
-991 -1156 0
-991 -1157 0
-991 -1158 0
-991 -1159 0
-991 -1160 0
-992 -1001 0
-992 -1002 0
-992 -1004 0
-992 -1005 0
-992 -1006 0
-992 -1007 0
-992 -1008 0
-992 -1009 0
-992 -1010 0
-992 -1151 0
-992 -1152 0
-992 -1153 0
-992 -1154 0
-992 -1155 0
-992 -1157 0
-992 -1158 0
-992 -1159 0
-992 -1160 0
-993 -1001 0
-993 -1002 0
-993 -1003 0
-993 -1005 0
-993 -1006 0
-993 -1007 0
-993 -1008 0
-993 -1009 0
-993 -1010 0
-993 -1151 0
-993 -1152 0
-993 -1153 0
-993 -1154 0
-993 -1155 0
-993 -1156 0
-993 -1158 0
-993 -1159 0
-993 -1160 0
-994 -1002 0
-994 -1003 0
-994 -1004 0
-994 -1005 0
-994 -1006 0
-994 -1007 0
-994 -1008 0
-994 -1009 0
-994 -1010 0
-994 -1151 0
-994 -1152 0
-994 -1153 0
-994 -1154 0
-994 -1155 0
-994 -1156 0
-994 -1157 0
-994 -1159 0
-994 -1160 0
-995 -1001 0
-995 -1002 0
-995 -1003 0
-995 -1004 0
-995 -1005 0
-995 -1007 0
-995 -1008 0
-995 -1010 0
-995 -1151 0
-995 -1152 0
-995 -1154 0
-995 -1155 0
-995 -1156 0
-995 -1157 0
-995 -1158 0
-995 -1160 0
-996 -1001 0
-996 -1002 0
-996 -1003 0
-996 -1004 0
-996 -1005 0
-996 -1006 0
-996 -1008 0
-996 -1009 0
-996 -1010 0
-996 -1151 0
-996 -1152 0
-996 -1153 0
-996 -1155 0
-996 -1156 0
-996 -1157 0
-996 -1158 0
-996 -1159 0
-997 -1001 0
-997 -1002 0
-997 -1003 0
-997 -1004 0
-997 -1005 0
-997 -1006 0
-997 -1007 0
-997 -1009 0
-997 -1010 0
-997 -1152 0
-997 -1153 0
-997 -1154 0
-997 -1155 0
-997 -1156 0
-997 -1157 0
-997 -1158 0
-997 -1159 0
-997 -1160 0
-998 -1001 0
-998 -1003 0
-998 -1004 0
-998 -1006 0
-998 -1007 0
-998 -1008 0
-998 -1009 0
-998 -1010 0
-998 -1151 0
-998 -1153 0
-998 -1154 0
-998 -1156 0
-998 -1157 0
-998 -1158 0
-998 -1159 0
-998 -1160 0
-999 -1001 0
-999 -1002 0
-999 -1003 0
-999 -1004 0
-999 -1005 0
-999 -1006 0
-999 -1007 0
-999 -1008 0
-999 -1009 0
-999 -1151 0
-999 -1152 0
-999 -1153 0
-999 -1155 0
-999 -1156 0
-999 -1157 0
-999 -1158 0
-999 -1159 0
-1000 -1002 0
-1000 -1003 0
-1000 -1004 0
-1000 -1005 0
-1000 -1006 0
-1000 -1007 0
-1000 -1008 0
-1000 -1009 0
-1000 -1010 0
-1000 -1152 0
-1000 -1153 0
-1000 -1154 0
-1000 -1155 0
-1000 -1156 0
-1000 -1157 0
-1000 -1158 0
-1000 -1159 0
-1000 -1160 0
-1001 -1011 0
-1001 -1013 0
-1001 -1014 0
-1001 -1016 0
-1001 -1017 0
-1001 -1018 0
-1001 -1019 0
-1001 -1020 0
-1001 -1161 0
-1001 -1163 0
-1001 -1164 0
-1001 -1166 0
-1001 -1167 0
-1001 -1168 0
-1001 -1169 0
-1001 -1170 0
-1002 -1011 0
-1002 -1012 0
-1002 -1014 0
-1002 -1015 0
-1002 -1016 0
-1002 -1017 0
-1002 -1018 0
-1002 -1019 0
-1002 -1020 0
-1002 -1161 0
-1002 -1162 0
-1002 -1163 0
-1002 -1164 0
-1002 -1165 0
-1002 -1167 0
-1002 -1168 0
-1002 -1169 0
-1002 -1170 0
-1003 -1011 0
-1003 -1012 0
-1003 -1013 0
-1003 -1015 0
-1003 -1016 0
-1003 -1017 0
-1003 -1018 0
-1003 -1019 0
-1003 -1020 0
-1003 -1161 0
-1003 -1162 0
-1003 -1163 0
-1003 -1164 0
-1003 -1165 0
-1003 -1166 0
-1003 -1168 0
-1003 -1169 0
-1003 -1170 0
-1004 -1012 0
-1004 -1013 0
-1004 -1014 0
-1004 -1015 0
-1004 -1016 0
-1004 -1017 0
-1004 -1018 0
-1004 -1019 0
-1004 -1020 0
-1004 -1161 0
-1004 -1162 0
-1004 -1163 0
-1004 -1164 0
-1004 -1165 0
-1004 -1166 0
-1004 -1167 0
-1004 -1169 0
-1004 -1170 0
-1005 -1011 0
-1005 -1012 0
-1005 -1013 0
-1005 -1014 0
-1005 -1015 0
-1005 -1017 0
-1005 -1018 0
-1005 -1020 0
-1005 -1161 0
-1005 -1162 0
-1005 -1164 0
-1005 -1165 0
-1005 -1166 0
-1005 -1167 0
-1005 -1168 0
-1005 -1170 0
-1006 -1011 0
-1006 -1012 0
-1006 -1013 0
-1006 -1014 0
-1006 -1015 0
-1006 -1016 0
-1006 -1018 0
-1006 -1019 0
-1006 -1020 0
-1006 -1161 0
-1006 -1162 0
-1006 -1163 0
-1006 -1165 0
-1006 -1166 0
-1006 -1167 0
-1006 -1168 0
-1006 -1169 0
-1007 -1011 0
-1007 -1012 0
-1007 -1013 0
-1007 -1014 0
-1007 -1015 0
-1007 -1016 0
-1007 -1017 0
-1007 -1019 0
-1007 -1020 0
-1007 -1162 0
-1007 -1163 0
-1007 -1164 0
-1007 -1165 0
-1007 -1166 0
-1007 -1167 0
-1007 -1168 0
-1007 -1169 0
-1007 -1170 0
-1008 -1011 0
-1008 -1013 0
-1008 -1014 0
-1008 -1016 0
-1008 -1017 0
-1008 -1018 0
-1008 -1019 0
-1008 -1020 0
-1008 -1161 0
-1008 -1163 0
-1008 -1164 0
-1008 -1166 0
-1008 -1167 0
-1008 -1168 0
-1008 -1169 0
-1008 -1170 0
-1009 -1011 0
-1009 -1012 0
-1009 -1013 0
-1009 -1014 0
-1009 -1015 0
-1009 -1016 0
-1009 -1017 0
-1009 -1018 0
-1009 -1019 0
-1009 -1161 0
-1009 -1162 0
-1009 -1163 0
-1009 -1165 0
-1009 -1166 0
-1009 -1167 0
-1009 -1168 0
-1009 -1169 0
-1010 -1012 0
-1010 -1013 0
-1010 -1014 0
-1010 -1015 0
-1010 -1016 0
-1010 -1017 0
-1010 -1018 0
-1010 -1019 0
-1010 -1020 0
-1010 -1162 0
-1010 -1163 0
-1010 -1164 0
-1010 -1165 0
-1010 -1166 0
-1010 -1167 0
-1010 -1168 0
-1010 -1169 0
-1010 -1170 0
-1011 -1021 0
-1011 -1023 0
-1011 -1024 0
-1011 -1026 0
-1011 -1027 0
-1011 -1028 0
-1011 -1029 0
-1011 -1030 0
-1011 -1171 0
-1011 -1173 0
-1011 -1174 0
-1011 -1176 0
-1011 -1177 0
-1011 -1178 0
-1011 -1179 0
-1011 -1180 0
-1012 -1021 0
-1012 -1022 0
-1012 -1024 0
-1012 -1025 0
-1012 -1026 0
-1012 -1027 0
-1012 -1028 0
-1012 -1029 0
-1012 -1030 0
-1012 -1171 0
-1012 -1172 0
-1012 -1173 0
-1012 -1174 0
-1012 -1175 0
-1012 -1177 0
-1012 -1178 0
-1012 -1179 0
-1012 -1180 0
-1013 -1021 0
-1013 -1022 0
-1013 -1023 0
-1013 -1025 0
-1013 -1026 0
-1013 -1027 0
-1013 -1028 0
-1013 -1029 0
-1013 -1030 0
-1013 -1171 0
-1013 -1172 0
-1013 -1173 0
-1013 -1174 0
-1013 -1175 0
-1013 -1176 0
-1013 -1178 0
-1013 -1179 0
-1013 -1180 0
-1014 -1022 0
-1014 -1023 0
-1014 -1024 0
-1014 -1025 0
-1014 -1026 0
-1014 -1027 0
-1014 -1028 0
-1014 -1029 0
-1014 -1030 0
-1014 -1171 0
-1014 -1172 0
-1014 -1173 0
-1014 -1174 0
-1014 -1175 0
-1014 -1176 0
-1014 -1177 0
-1014 -1179 0
-1014 -1180 0
-1015 -1021 0
-1015 -1022 0
-1015 -1023 0
-1015 -1024 0
-1015 -1025 0
-1015 -1027 0
-1015 -1028 0
-1015 -1030 0
-1015 -1171 0
-1015 -1172 0
-1015 -1174 0
-1015 -1175 0
-1015 -1176 0
-1015 -1177 0
-1015 -1178 0
-1015 -1180 0
-1016 -1021 0
-1016 -1022 0
-1016 -1023 0
-1016 -1024 0
-1016 -1025 0
-1016 -1026 0
-1016 -1028 0
-1016 -1029 0
-1016 -1030 0
-1016 -1171 0
-1016 -1172 0
-1016 -1173 0
-1016 -1175 0
-1016 -1176 0
-1016 -1177 0
-1016 -1178 0
-1016 -1179 0
-1017 -1021 0
-1017 -1022 0
-1017 -1023 0
-1017 -1024 0
-1017 -1025 0
-1017 -1026 0
-1017 -1027 0
-1017 -1029 0
-1017 -1030 0
-1017 -1172 0
-1017 -1173 0
-1017 -1174 0
-1017 -1175 0
-1017 -1176 0
-1017 -1177 0
-1017 -1178 0
-1017 -1179 0
-1017 -1180 0
-1018 -1021 0
-1018 -1023 0
-1018 -1024 0
-1018 -1026 0
-1018 -1027 0
-1018 -1028 0
-1018 -1029 0
-1018 -1030 0
-1018 -1171 0
-1018 -1173 0
-1018 -1174 0
-1018 -1176 0
-1018 -1177 0
-1018 -1178 0
-1018 -1179 0
-1018 -1180 0
-1019 -1021 0
-1019 -1022 0
-1019 -1023 0
-1019 -1024 0
-1019 -1025 0
-1019 -1026 0
-1019 -1027 0
-1019 -1028 0
-1019 -1029 0
-1019 -1171 0
-1019 -1172 0
-1019 -1173 0
-1019 -1175 0
-1019 -1176 0
-1019 -1177 0
-1019 -1178 0
-1019 -1179 0
-1020 -1022 0
-1020 -1023 0
-1020 -1024 0
-1020 -1025 0
-1020 -1026 0
-1020 -1027 0
-1020 -1028 0
-1020 -1029 0
-1020 -1030 0
-1020 -1172 0
-1020 -1173 0
-1020 -1174 0
-1020 -1175 0
-1020 -1176 0
-1020 -1177 0
-1020 -1178 0
-1020 -1179 0
-1020 -1180 0
-1021 -1031 0
-1021 -1033 0
-1021 -1034 0
-1021 -1036 0
-1021 -1037 0
-1021 -1038 0
-1021 -1039 0
-1021 -1040 0
-1021 -1181 0
-1021 -1183 0
-1021 -1184 0
-1021 -1186 0
-1021 -1187 0
-1021 -1188 0
-1021 -1189 0
-1021 -1190 0
-1022 -1031 0
-1022 -1032 0
-1022 -1034 0
-1022 -1035 0
-1022 -1036 0
-1022 -1037 0
-1022 -1038 0
-1022 -1039 0
-1022 -1040 0
-1022 -1181 0
-1022 -1182 0
-1022 -1183 0
-1022 -1184 0
-1022 -1185 0
-1022 -1187 0
-1022 -1188 0
-1022 -1189 0
-1022 -1190 0
-1023 -1031 0
-1023 -1032 0
-1023 -1033 0
-1023 -1035 0
-1023 -1036 0
-1023 -1037 0
-1023 -1038 0
-1023 -1039 0
-1023 -1040 0
-1023 -1181 0
-1023 -1182 0
-1023 -1183 0
-1023 -1184 0
-1023 -1185 0
-1023 -1186 0
-1023 -1188 0
-1023 -1189 0
-1023 -1190 0
-1024 -1032 0
-1024 -1033 0
-1024 -1034 0
-1024 -1035 0
-1024 -1036 0
-1024 -1037 0
-1024 -1038 0
-1024 -1039 0
-1024 -1040 0
-1024 -1181 0
-1024 -1182 0
-1024 -1183 0
-1024 -1184 0
-1024 -1185 0
-1024 -1186 0
-1024 -1187 0
-1024 -1189 0
-1024 -1190 0
-1025 -1031 0
-1025 -1032 0
-1025 -1033 0
-1025 -1034 0
-1025 -1035 0
-1025 -1037 0
-1025 -1038 0
-1025 -1040 0
-1025 -1181 0
-1025 -1182 0
-1025 -1184 0
-1025 -1185 0
-1025 -1186 0
-1025 -1187 0
-1025 -1188 0
-1025 -1190 0
-1026 -1031 0
-1026 -1032 0
-1026 -1033 0
-1026 -1034 0
-1026 -1035 0
-1026 -1036 0
-1026 -1038 0
-1026 -1039 0
-1026 -1040 0
-1026 -1181 0
-1026 -1182 0
-1026 -1183 0
-1026 -1185 0
-1026 -1186 0
-1026 -1187 0
-1026 -1188 0
-1026 -1189 0
-1027 -1031 0
-1027 -1032 0
-1027 -1033 0
-1027 -1034 0
-1027 -1035 0
-1027 -1036 0
-1027 -1037 0
-1027 -1039 0
-1027 -1040 0
-1027 -1182 0
-1027 -1183 0
-1027 -1184 0
-1027 -1185 0
-1027 -1186 0
-1027 -1187 0
-1027 -1188 0
-1027 -1189 0
-1027 -1190 0
-1028 -1031 0
-1028 -1033 0
-1028 -1034 0
-1028 -1036 0
-1028 -1037 0
-1028 -1038 0
-1028 -1039 0
-1028 -1040 0
-1028 -1181 0
-1028 -1183 0
-1028 -1184 0
-1028 -1186 0
-1028 -1187 0
-1028 -1188 0
-1028 -1189 0
-1028 -1190 0
-1029 -1031 0
-1029 -1032 0
-1029 -1033 0
-1029 -1034 0
-1029 -1035 0
-1029 -1036 0
-1029 -1037 0
-1029 -1038 0
-1029 -1039 0
-1029 -1181 0
-1029 -1182 0
-1029 -1183 0
-1029 -1185 0
-1029 -1186 0
-1029 -1187 0
-1029 -1188 0
-1029 -1189 0
-1030 -1032 0
-1030 -1033 0
-1030 -1034 0
-1030 -1035 0
-1030 -1036 0
-1030 -1037 0
-1030 -1038 0
-1030 -1039 0
-1030 -1040 0
-1030 -1182 0
-1030 -1183 0
-1030 -1184 0
-1030 -1185 0
-1030 -1186 0
-1030 -1187 0
-1030 -1188 0
-1030 -1189 0
-1030 -1190 0
-1031 -1041 0
-1031 -1043 0
-1031 -1044 0
-1031 -1046 0
-1031 -1047 0
-1031 -1048 0
-1031 -1049 0
-1031 -1050 0
-1031 -1191 0
-1031 -1193 0
-1031 -1194 0
-1031 -1196 0
-1031 -1197 0
-1031 -1198 0
-1031 -1199 0
-1031 -1200 0
-1032 -1041 0
-1032 -1042 0
-1032 -1044 0
-1032 -1045 0
-1032 -1046 0
-1032 -1047 0
-1032 -1048 0
-1032 -1049 0
-1032 -1050 0
-1032 -1191 0
-1032 -1192 0
-1032 -1193 0
-1032 -1194 0
-1032 -1195 0
-1032 -1197 0
-1032 -1198 0
-1032 -1199 0
-1032 -1200 0
-1033 -1041 0
-1033 -1042 0
-1033 -1043 0
-1033 -1045 0
-1033 -1046 0
-1033 -1047 0
-1033 -1048 0
-1033 -1049 0
-1033 -1050 0
-1033 -1191 0
-1033 -1192 0
-1033 -1193 0
-1033 -1194 0
-1033 -1195 0
-1033 -1196 0
-1033 -1198 0
-1033 -1199 0
-1033 -1200 0
-1034 -1042 0
-1034 -1043 0
-1034 -1044 0
-1034 -1045 0
-1034 -1046 0
-1034 -1047 0
-1034 -1048 0
-1034 -1049 0
-1034 -1050 0
-1034 -1191 0
-1034 -1192 0
-1034 -1193 0
-1034 -1194 0
-1034 -1195 0
-1034 -1196 0
-1034 -1197 0
-1034 -1199 0
-1034 -1200 0
-1035 -1041 0
-1035 -1042 0
-1035 -1043 0
-1035 -1044 0
-1035 -1045 0
-1035 -1047 0
-1035 -1048 0
-1035 -1050 0
-1035 -1191 0
-1035 -1192 0
-1035 -1194 0
-1035 -1195 0
-1035 -1196 0
-1035 -1197 0
-1035 -1198 0
-1035 -1200 0
-1036 -1041 0
-1036 -1042 0
-1036 -1043 0
-1036 -1044 0
-1036 -1045 0
-1036 -1046 0
-1036 -1048 0
-1036 -1049 0
-1036 -1050 0
-1036 -1191 0
-1036 -1192 0
-1036 -1193 0
-1036 -1195 0
-1036 -1196 0
-1036 -1197 0
-1036 -1198 0
-1036 -1199 0
-1037 -1041 0
-1037 -1042 0
-1037 -1043 0
-1037 -1044 0
-1037 -1045 0
-1037 -1046 0
-1037 -1047 0
-1037 -1049 0
-1037 -1050 0
-1037 -1192 0
-1037 -1193 0
-1037 -1194 0
-1037 -1195 0
-1037 -1196 0
-1037 -1197 0
-1037 -1198 0
-1037 -1199 0
-1037 -1200 0
-1038 -1041 0
-1038 -1043 0
-1038 -1044 0
-1038 -1046 0
-1038 -1047 0
-1038 -1048 0
-1038 -1049 0
-1038 -1050 0
-1038 -1191 0
-1038 -1193 0
-1038 -1194 0
-1038 -1196 0
-1038 -1197 0
-1038 -1198 0
-1038 -1199 0
-1038 -1200 0
-1039 -1041 0
-1039 -1042 0
-1039 -1043 0
-1039 -1044 0
-1039 -1045 0
-1039 -1046 0
-1039 -1047 0
-1039 -1048 0
-1039 -1049 0
-1039 -1191 0
-1039 -1192 0
-1039 -1193 0
-1039 -1195 0
-1039 -1196 0
-1039 -1197 0
-1039 -1198 0
-1039 -1199 0
-1040 -1042 0
-1040 -1043 0
-1040 -1044 0
-1040 -1045 0
-1040 -1046 0
-1040 -1047 0
-1040 -1048 0
-1040 -1049 0
-1040 -1050 0
-1040 -1192 0
-1040 -1193 0
-1040 -1194 0
-1040 -1195 0
-1040 -1196 0
-1040 -1197 0
-1040 -1198 0
-1040 -1199 0
-1040 -1200 0
-1041 -1051 0
-1041 -1053 0
-1041 -1054 0
-1041 -1056 0
-1041 -1057 0
-1041 -1058 0
-1041 -1059 0
-1041 -1060 0
-1041 -1201 0
-1041 -1203 0
-1041 -1204 0
-1041 -1206 0
-1041 -1207 0
-1041 -1208 0
-1041 -1209 0
-1041 -1210 0
-1042 -1051 0
-1042 -1052 0
-1042 -1054 0
-1042 -1055 0
-1042 -1056 0
-1042 -1057 0
-1042 -1058 0
-1042 -1059 0
-1042 -1060 0
-1042 -1201 0
-1042 -1202 0
-1042 -1203 0
-1042 -1204 0
-1042 -1205 0
-1042 -1207 0
-1042 -1208 0
-1042 -1209 0
-1042 -1210 0
-1043 -1051 0
-1043 -1052 0
-1043 -1053 0
-1043 -1055 0
-1043 -1056 0
-1043 -1057 0
-1043 -1058 0
-1043 -1059 0
-1043 -1060 0
-1043 -1201 0
-1043 -1202 0
-1043 -1203 0
-1043 -1204 0
-1043 -1205 0
-1043 -1206 0
-1043 -1208 0
-1043 -1209 0
-1043 -1210 0
-1044 -1052 0
-1044 -1053 0
-1044 -1054 0
-1044 -1055 0
-1044 -1056 0
-1044 -1057 0
-1044 -1058 0
-1044 -1059 0
-1044 -1060 0
-1044 -1201 0
-1044 -1202 0
-1044 -1203 0
-1044 -1204 0
-1044 -1205 0
-1044 -1206 0
-1044 -1207 0
-1044 -1209 0
-1044 -1210 0
-1045 -1051 0
-1045 -1052 0
-1045 -1053 0
-1045 -1054 0
-1045 -1055 0
-1045 -1057 0
-1045 -1058 0
-1045 -1060 0
-1045 -1201 0
-1045 -1202 0
-1045 -1204 0
-1045 -1205 0
-1045 -1206 0
-1045 -1207 0
-1045 -1208 0
-1045 -1210 0
-1046 -1051 0
-1046 -1052 0
-1046 -1053 0
-1046 -1054 0
-1046 -1055 0
-1046 -1056 0
-1046 -1058 0
-1046 -1059 0
-1046 -1060 0
-1046 -1201 0
-1046 -1202 0
-1046 -1203 0
-1046 -1205 0
-1046 -1206 0
-1046 -1207 0
-1046 -1208 0
-1046 -1209 0
-1047 -1051 0
-1047 -1052 0
-1047 -1053 0
-1047 -1054 0
-1047 -1055 0
-1047 -1056 0
-1047 -1057 0
-1047 -1059 0
-1047 -1060 0
-1047 -1202 0
-1047 -1203 0
-1047 -1204 0
-1047 -1205 0
-1047 -1206 0
-1047 -1207 0
-1047 -1208 0
-1047 -1209 0
-1047 -1210 0
-1048 -1051 0
-1048 -1053 0
-1048 -1054 0
-1048 -1056 0
-1048 -1057 0
-1048 -1058 0
-1048 -1059 0
-1048 -1060 0
-1048 -1201 0
-1048 -1203 0
-1048 -1204 0
-1048 -1206 0
-1048 -1207 0
-1048 -1208 0
-1048 -1209 0
-1048 -1210 0
-1049 -1051 0
-1049 -1052 0
-1049 -1053 0
-1049 -1054 0
-1049 -1055 0
-1049 -1056 0
-1049 -1057 0
-1049 -1058 0
-1049 -1059 0
-1049 -1201 0
-1049 -1202 0
-1049 -1203 0
-1049 -1205 0
-1049 -1206 0
-1049 -1207 0
-1049 -1208 0
-1049 -1209 0
-1050 -1052 0
-1050 -1053 0
-1050 -1054 0
-1050 -1055 0
-1050 -1056 0
-1050 -1057 0
-1050 -1058 0
-1050 -1059 0
-1050 -1060 0
-1050 -1202 0
-1050 -1203 0
-1050 -1204 0
-1050 -1205 0
-1050 -1206 0
-1050 -1207 0
-1050 -1208 0
-1050 -1209 0
-1050 -1210 0
-1051 -1061 0
-1051 -1063 0
-1051 -1064 0
-1051 -1066 0
-1051 -1067 0
-1051 -1068 0
-1051 -1069 0
-1051 -1070 0
-1051 -1211 0
-1051 -1213 0
-1051 -1214 0
-1051 -1216 0
-1051 -1217 0
-1051 -1218 0
-1051 -1219 0
-1051 -1220 0
-1052 -1061 0
-1052 -1062 0
-1052 -1064 0
-1052 -1065 0
-1052 -1066 0
-1052 -1067 0
-1052 -1068 0
-1052 -1069 0
-1052 -1070 0
-1052 -1211 0
-1052 -1212 0
-1052 -1213 0
-1052 -1214 0
-1052 -1215 0
-1052 -1217 0
-1052 -1218 0
-1052 -1219 0
-1052 -1220 0
-1053 -1061 0
-1053 -1062 0
-1053 -1063 0
-1053 -1065 0
-1053 -1066 0
-1053 -1067 0
-1053 -1068 0
-1053 -1069 0
-1053 -1070 0
-1053 -1211 0
-1053 -1212 0
-1053 -1213 0
-1053 -1214 0
-1053 -1215 0
-1053 -1216 0
-1053 -1218 0
-1053 -1219 0
-1053 -1220 0
-1054 -1062 0
-1054 -1063 0
-1054 -1064 0
-1054 -1065 0
-1054 -1066 0
-1054 -1067 0
-1054 -1068 0
-1054 -1069 0
-1054 -1070 0
-1054 -1211 0
-1054 -1212 0
-1054 -1213 0
-1054 -1214 0
-1054 -1215 0
-1054 -1216 0
-1054 -1217 0
-1054 -1219 0
-1054 -1220 0
-1055 -1061 0
-1055 -1062 0
-1055 -1063 0
-1055 -1064 0
-1055 -1065 0
-1055 -1067 0
-1055 -1068 0
-1055 -1070 0
-1055 -1211 0
-1055 -1212 0
-1055 -1214 0
-1055 -1215 0
-1055 -1216 0
-1055 -1217 0
-1055 -1218 0
-1055 -1220 0
-1056 -1061 0
-1056 -1062 0
-1056 -1063 0
-1056 -1064 0
-1056 -1065 0
-1056 -1066 0
-1056 -1068 0
-1056 -1069 0
-1056 -1070 0
-1056 -1211 0
-1056 -1212 0
-1056 -1213 0
-1056 -1215 0
-1056 -1216 0
-1056 -1217 0
-1056 -1218 0
-1056 -1219 0
-1057 -1061 0
-1057 -1062 0
-1057 -1063 0
-1057 -1064 0
-1057 -1065 0
-1057 -1066 0
-1057 -1067 0
-1057 -1069 0
-1057 -1070 0
-1057 -1212 0
-1057 -1213 0
-1057 -1214 0
-1057 -1215 0
-1057 -1216 0
-1057 -1217 0
-1057 -1218 0
-1057 -1219 0
-1057 -1220 0
-1058 -1061 0
-1058 -1063 0
-1058 -1064 0
-1058 -1066 0
-1058 -1067 0
-1058 -1068 0
-1058 -1069 0
-1058 -1070 0
-1058 -1211 0
-1058 -1213 0
-1058 -1214 0
-1058 -1216 0
-1058 -1217 0
-1058 -1218 0
-1058 -1219 0
-1058 -1220 0
-1059 -1061 0
-1059 -1062 0
-1059 -1063 0
-1059 -1064 0
-1059 -1065 0
-1059 -1066 0
-1059 -1067 0
-1059 -1068 0
-1059 -1069 0
-1059 -1211 0
-1059 -1212 0
-1059 -1213 0
-1059 -1215 0
-1059 -1216 0
-1059 -1217 0
-1059 -1218 0
-1059 -1219 0
-1060 -1062 0
-1060 -1063 0
-1060 -1064 0
-1060 -1065 0
-1060 -1066 0
-1060 -1067 0
-1060 -1068 0
-1060 -1069 0
-1060 -1070 0
-1060 -1212 0
-1060 -1213 0
-1060 -1214 0
-1060 -1215 0
-1060 -1216 0
-1060 -1217 0
-1060 -1218 0
-1060 -1219 0
-1060 -1220 0
-1061 -1071 0
-1061 -1073 0
-1061 -1074 0
-1061 -1076 0
-1061 -1077 0
-1061 -1078 0
-1061 -1079 0
-1061 -1080 0
-1061 -1221 0
-1061 -1223 0
-1061 -1224 0
-1061 -1226 0
-1061 -1227 0
-1061 -1228 0
-1061 -1229 0
-1061 -1230 0
-1062 -1071 0
-1062 -1072 0
-1062 -1074 0
-1062 -1075 0
-1062 -1076 0
-1062 -1077 0
-1062 -1078 0
-1062 -1079 0
-1062 -1080 0
-1062 -1221 0
-1062 -1222 0
-1062 -1223 0
-1062 -1224 0
-1062 -1225 0
-1062 -1227 0
-1062 -1228 0
-1062 -1229 0
-1062 -1230 0
-1063 -1071 0
-1063 -1072 0
-1063 -1073 0
-1063 -1075 0
-1063 -1076 0
-1063 -1077 0
-1063 -1078 0
-1063 -1079 0
-1063 -1080 0
-1063 -1221 0
-1063 -1222 0
-1063 -1223 0
-1063 -1224 0
-1063 -1225 0
-1063 -1226 0
-1063 -1228 0
-1063 -1229 0
-1063 -1230 0
-1064 -1072 0
-1064 -1073 0
-1064 -1074 0
-1064 -1075 0
-1064 -1076 0
-1064 -1077 0
-1064 -1078 0
-1064 -1079 0
-1064 -1080 0
-1064 -1221 0
-1064 -1222 0
-1064 -1223 0
-1064 -1224 0
-1064 -1225 0
-1064 -1226 0
-1064 -1227 0
-1064 -1229 0
-1064 -1230 0
-1065 -1071 0
-1065 -1072 0
-1065 -1073 0
-1065 -1074 0
-1065 -1075 0
-1065 -1077 0
-1065 -1078 0
-1065 -1080 0
-1065 -1221 0
-1065 -1222 0
-1065 -1224 0
-1065 -1225 0
-1065 -1226 0
-1065 -1227 0
-1065 -1228 0
-1065 -1230 0
-1066 -1071 0
-1066 -1072 0
-1066 -1073 0
-1066 -1074 0
-1066 -1075 0
-1066 -1076 0
-1066 -1078 0
-1066 -1079 0
-1066 -1080 0
-1066 -1221 0
-1066 -1222 0
-1066 -1223 0
-1066 -1225 0
-1066 -1226 0
-1066 -1227 0
-1066 -1228 0
-1066 -1229 0
-1067 -1071 0
-1067 -1072 0
-1067 -1073 0
-1067 -1074 0
-1067 -1075 0
-1067 -1076 0
-1067 -1077 0
-1067 -1079 0
-1067 -1080 0
-1067 -1222 0
-1067 -1223 0
-1067 -1224 0
-1067 -1225 0
-1067 -1226 0
-1067 -1227 0
-1067 -1228 0
-1067 -1229 0
-1067 -1230 0
-1068 -1071 0
-1068 -1073 0
-1068 -1074 0
-1068 -1076 0
-1068 -1077 0
-1068 -1078 0
-1068 -1079 0
-1068 -1080 0
-1068 -1221 0
-1068 -1223 0
-1068 -1224 0
-1068 -1226 0
-1068 -1227 0
-1068 -1228 0
-1068 -1229 0
-1068 -1230 0
-1069 -1071 0
-1069 -1072 0
-1069 -1073 0
-1069 -1074 0
-1069 -1075 0
-1069 -1076 0
-1069 -1077 0
-1069 -1078 0
-1069 -1079 0
-1069 -1221 0
-1069 -1222 0
-1069 -1223 0
-1069 -1225 0
-1069 -1226 0
-1069 -1227 0
-1069 -1228 0
-1069 -1229 0
-1070 -1072 0
-1070 -1073 0
-1070 -1074 0
-1070 -1075 0
-1070 -1076 0
-1070 -1077 0
-1070 -1078 0
-1070 -1079 0
-1070 -1080 0
-1070 -1222 0
-1070 -1223 0
-1070 -1224 0
-1070 -1225 0
-1070 -1226 0
-1070 -1227 0
-1070 -1228 0
-1070 -1229 0
-1070 -1230 0
-1071 -1081 0
-1071 -1083 0
-1071 -1084 0
-1071 -1086 0
-1071 -1087 0
-1071 -1088 0
-1071 -1089 0
-1071 -1090 0
-1071 -1231 0
-1071 -1233 0
-1071 -1234 0
-1071 -1236 0
-1071 -1237 0
-1071 -1238 0
-1071 -1239 0
-1071 -1240 0
-1072 -1081 0
-1072 -1082 0
-1072 -1084 0
-1072 -1085 0
-1072 -1086 0
-1072 -1087 0
-1072 -1088 0
-1072 -1089 0
-1072 -1090 0
-1072 -1231 0
-1072 -1232 0
-1072 -1233 0
-1072 -1234 0
-1072 -1235 0
-1072 -1237 0
-1072 -1238 0
-1072 -1239 0
-1072 -1240 0
-1073 -1081 0
-1073 -1082 0
-1073 -1083 0
-1073 -1085 0
-1073 -1086 0
-1073 -1087 0
-1073 -1088 0
-1073 -1089 0
-1073 -1090 0
-1073 -1231 0
-1073 -1232 0
-1073 -1233 0
-1073 -1234 0
-1073 -1235 0
-1073 -1236 0
-1073 -1238 0
-1073 -1239 0
-1073 -1240 0
-1074 -1082 0
-1074 -1083 0
-1074 -1084 0
-1074 -1085 0
-1074 -1086 0
-1074 -1087 0
-1074 -1088 0
-1074 -1089 0
-1074 -1090 0
-1074 -1231 0
-1074 -1232 0
-1074 -1233 0
-1074 -1234 0
-1074 -1235 0
-1074 -1236 0
-1074 -1237 0
-1074 -1239 0
-1074 -1240 0
-1075 -1081 0
-1075 -1082 0
-1075 -1083 0
-1075 -1084 0
-1075 -1085 0
-1075 -1087 0
-1075 -1088 0
-1075 -1090 0
-1075 -1231 0
-1075 -1232 0
-1075 -1234 0
-1075 -1235 0
-1075 -1236 0
-1075 -1237 0
-1075 -1238 0
-1075 -1240 0
-1076 -1081 0
-1076 -1082 0
-1076 -1083 0
-1076 -1084 0
-1076 -1085 0
-1076 -1086 0
-1076 -1088 0
-1076 -1089 0
-1076 -1090 0
-1076 -1231 0
-1076 -1232 0
-1076 -1233 0
-1076 -1235 0
-1076 -1236 0
-1076 -1237 0
-1076 -1238 0
-1076 -1239 0
-1077 -1081 0
-1077 -1082 0
-1077 -1083 0
-1077 -1084 0
-1077 -1085 0
-1077 -1086 0
-1077 -1087 0
-1077 -1089 0
-1077 -1090 0
-1077 -1232 0
-1077 -1233 0
-1077 -1234 0
-1077 -1235 0
-1077 -1236 0
-1077 -1237 0
-1077 -1238 0
-1077 -1239 0
-1077 -1240 0
-1078 -1081 0
-1078 -1083 0
-1078 -1084 0
-1078 -1086 0
-1078 -1087 0
-1078 -1088 0
-1078 -1089 0
-1078 -1090 0
-1078 -1231 0
-1078 -1233 0
-1078 -1234 0
-1078 -1236 0
-1078 -1237 0
-1078 -1238 0
-1078 -1239 0
-1078 -1240 0
-1079 -1081 0
-1079 -1082 0
-1079 -1083 0
-1079 -1084 0
-1079 -1085 0
-1079 -1086 0
-1079 -1087 0
-1079 -1088 0
-1079 -1089 0
-1079 -1231 0
-1079 -1232 0
-1079 -1233 0
-1079 -1235 0
-1079 -1236 0
-1079 -1237 0
-1079 -1238 0
-1079 -1239 0
-1080 -1082 0
-1080 -1083 0
-1080 -1084 0
-1080 -1085 0
-1080 -1086 0
-1080 -1087 0
-1080 -1088 0
-1080 -1089 0
-1080 -1090 0
-1080 -1232 0
-1080 -1233 0
-1080 -1234 0
-1080 -1235 0
-1080 -1236 0
-1080 -1237 0
-1080 -1238 0
-1080 -1239 0
-1080 -1240 0
-1081 -1091 0
-1081 -1093 0
-1081 -1094 0
-1081 -1096 0
-1081 -1097 0
-1081 -1098 0
-1081 -1099 0
-1081 -1100 0
-1081 -1241 0
-1081 -1243 0
-1081 -1244 0
-1081 -1246 0
-1081 -1247 0
-1081 -1248 0
-1081 -1249 0
-1081 -1250 0
-1082 -1091 0
-1082 -1092 0
-1082 -1094 0
-1082 -1095 0
-1082 -1096 0
-1082 -1097 0
-1082 -1098 0
-1082 -1099 0
-1082 -1100 0
-1082 -1241 0
-1082 -1242 0
-1082 -1243 0
-1082 -1244 0
-1082 -1245 0
-1082 -1247 0
-1082 -1248 0
-1082 -1249 0
-1082 -1250 0
-1083 -1091 0
-1083 -1092 0
-1083 -1093 0
-1083 -1095 0
-1083 -1096 0
-1083 -1097 0
-1083 -1098 0
-1083 -1099 0
-1083 -1100 0
-1083 -1241 0
-1083 -1242 0
-1083 -1243 0
-1083 -1244 0
-1083 -1245 0
-1083 -1246 0
-1083 -1248 0
-1083 -1249 0
-1083 -1250 0
-1084 -1092 0
-1084 -1093 0
-1084 -1094 0
-1084 -1095 0
-1084 -1096 0
-1084 -1097 0
-1084 -1098 0
-1084 -1099 0
-1084 -1100 0
-1084 -1241 0
-1084 -1242 0
-1084 -1243 0
-1084 -1244 0
-1084 -1245 0
-1084 -1246 0
-1084 -1247 0
-1084 -1249 0
-1084 -1250 0
-1085 -1091 0
-1085 -1092 0
-1085 -1093 0
-1085 -1094 0
-1085 -1095 0
-1085 -1097 0
-1085 -1098 0
-1085 -1100 0
-1085 -1241 0
-1085 -1242 0
-1085 -1244 0
-1085 -1245 0
-1085 -1246 0
-1085 -1247 0
-1085 -1248 0
-1085 -1250 0
-1086 -1091 0
-1086 -1092 0
-1086 -1093 0
-1086 -1094 0
-1086 -1095 0
-1086 -1096 0
-1086 -1098 0
-1086 -1099 0
-1086 -1100 0
-1086 -1241 0
-1086 -1242 0
-1086 -1243 0
-1086 -1245 0
-1086 -1246 0
-1086 -1247 0
-1086 -1248 0
-1086 -1249 0
-1087 -1091 0
-1087 -1092 0
-1087 -1093 0
-1087 -1094 0
-1087 -1095 0
-1087 -1096 0
-1087 -1097 0
-1087 -1099 0
-1087 -1100 0
-1087 -1242 0
-1087 -1243 0
-1087 -1244 0
-1087 -1245 0
-1087 -1246 0
-1087 -1247 0
-1087 -1248 0
-1087 -1249 0
-1087 -1250 0
-1088 -1091 0
-1088 -1093 0
-1088 -1094 0
-1088 -1096 0
-1088 -1097 0
-1088 -1098 0
-1088 -1099 0
-1088 -1100 0
-1088 -1241 0
-1088 -1243 0
-1088 -1244 0
-1088 -1246 0
-1088 -1247 0
-1088 -1248 0
-1088 -1249 0
-1088 -1250 0
-1089 -1091 0
-1089 -1092 0
-1089 -1093 0
-1089 -1094 0
-1089 -1095 0
-1089 -1096 0
-1089 -1097 0
-1089 -1098 0
-1089 -1099 0
-1089 -1241 0
-1089 -1242 0
-1089 -1243 0
-1089 -1245 0
-1089 -1246 0
-1089 -1247 0
-1089 -1248 0
-1089 -1249 0
-1090 -1092 0
-1090 -1093 0
-1090 -1094 0
-1090 -1095 0
-1090 -1096 0
-1090 -1097 0
-1090 -1098 0
-1090 -1099 0
-1090 -1100 0
-1090 -1242 0
-1090 -1243 0
-1090 -1244 0
-1090 -1245 0
-1090 -1246 0
-1090 -1247 0
-1090 -1248 0
-1090 -1249 0
-1090 -1250 0
-1091 -1101 0
-1091 -1103 0
-1091 -1104 0
-1091 -1106 0
-1091 -1107 0
-1091 -1108 0
-1091 -1109 0
-1091 -1110 0
-1091 -1251 0
-1091 -1253 0
-1091 -1254 0
-1091 -1256 0
-1091 -1257 0
-1091 -1258 0
-1091 -1259 0
-1091 -1260 0
-1092 -1101 0
-1092 -1102 0
-1092 -1104 0
-1092 -1105 0
-1092 -1106 0
-1092 -1107 0
-1092 -1108 0
-1092 -1109 0
-1092 -1110 0
-1092 -1251 0
-1092 -1252 0
-1092 -1253 0
-1092 -1254 0
-1092 -1255 0
-1092 -1257 0
-1092 -1258 0
-1092 -1259 0
-1092 -1260 0
-1093 -1101 0
-1093 -1102 0
-1093 -1103 0
-1093 -1105 0
-1093 -1106 0
-1093 -1107 0
-1093 -1108 0
-1093 -1109 0
-1093 -1110 0
-1093 -1251 0
-1093 -1252 0
-1093 -1253 0
-1093 -1254 0
-1093 -1255 0
-1093 -1256 0
-1093 -1258 0
-1093 -1259 0
-1093 -1260 0
-1094 -1102 0
-1094 -1103 0
-1094 -1104 0
-1094 -1105 0
-1094 -1106 0
-1094 -1107 0
-1094 -1108 0
-1094 -1109 0
-1094 -1110 0
-1094 -1251 0
-1094 -1252 0
-1094 -1253 0
-1094 -1254 0
-1094 -1255 0
-1094 -1256 0
-1094 -1257 0
-1094 -1259 0
-1094 -1260 0
-1095 -1101 0
-1095 -1102 0
-1095 -1103 0
-1095 -1104 0
-1095 -1105 0
-1095 -1107 0
-1095 -1108 0
-1095 -1110 0
-1095 -1251 0
-1095 -1252 0
-1095 -1254 0
-1095 -1255 0
-1095 -1256 0
-1095 -1257 0
-1095 -1258 0
-1095 -1260 0
-1096 -1101 0
-1096 -1102 0
-1096 -1103 0
-1096 -1104 0
-1096 -1105 0
-1096 -1106 0
-1096 -1108 0
-1096 -1109 0
-1096 -1110 0
-1096 -1251 0
-1096 -1252 0
-1096 -1253 0
-1096 -1255 0
-1096 -1256 0
-1096 -1257 0
-1096 -1258 0
-1096 -1259 0
-1097 -1101 0
-1097 -1102 0
-1097 -1103 0
-1097 -1104 0
-1097 -1105 0
-1097 -1106 0
-1097 -1107 0
-1097 -1109 0
-1097 -1110 0
-1097 -1252 0
-1097 -1253 0
-1097 -1254 0
-1097 -1255 0
-1097 -1256 0
-1097 -1257 0
-1097 -1258 0
-1097 -1259 0
-1097 -1260 0
-1098 -1101 0
-1098 -1103 0
-1098 -1104 0
-1098 -1106 0
-1098 -1107 0
-1098 -1108 0
-1098 -1109 0
-1098 -1110 0
-1098 -1251 0
-1098 -1253 0
-1098 -1254 0
-1098 -1256 0
-1098 -1257 0
-1098 -1258 0
-1098 -1259 0
-1098 -1260 0
-1099 -1101 0
-1099 -1102 0
-1099 -1103 0
-1099 -1104 0
-1099 -1105 0
-1099 -1106 0
-1099 -1107 0
-1099 -1108 0
-1099 -1109 0
-1099 -1251 0
-1099 -1252 0
-1099 -1253 0
-1099 -1255 0
-1099 -1256 0
-1099 -1257 0
-1099 -1258 0
-1099 -1259 0
-1100 -1102 0
-1100 -1103 0
-1100 -1104 0
-1100 -1105 0
-1100 -1106 0
-1100 -1107 0
-1100 -1108 0
-1100 -1109 0
-1100 -1110 0
-1100 -1252 0
-1100 -1253 0
-1100 -1254 0
-1100 -1255 0
-1100 -1256 0
-1100 -1257 0
-1100 -1258 0
-1100 -1259 0
-1100 -1260 0
-1101 -1111 0
-1101 -1113 0
-1101 -1114 0
-1101 -1116 0
-1101 -1117 0
-1101 -1118 0
-1101 -1119 0
-1101 -1120 0
-1101 -1261 0
-1101 -1263 0
-1101 -1264 0
-1101 -1266 0
-1101 -1267 0
-1101 -1268 0
-1101 -1269 0
-1101 -1270 0
-1102 -1111 0
-1102 -1112 0
-1102 -1114 0
-1102 -1115 0
-1102 -1116 0
-1102 -1117 0
-1102 -1118 0
-1102 -1119 0
-1102 -1120 0
-1102 -1261 0
-1102 -1262 0
-1102 -1263 0
-1102 -1264 0
-1102 -1265 0
-1102 -1267 0
-1102 -1268 0
-1102 -1269 0
-1102 -1270 0
-1103 -1111 0
-1103 -1112 0
-1103 -1113 0
-1103 -1115 0
-1103 -1116 0
-1103 -1117 0
-1103 -1118 0
-1103 -1119 0
-1103 -1120 0
-1103 -1261 0
-1103 -1262 0
-1103 -1263 0
-1103 -1264 0
-1103 -1265 0
-1103 -1266 0
-1103 -1268 0
-1103 -1269 0
-1103 -1270 0
-1104 -1112 0
-1104 -1113 0
-1104 -1114 0
-1104 -1115 0
-1104 -1116 0
-1104 -1117 0
-1104 -1118 0
-1104 -1119 0
-1104 -1120 0
-1104 -1261 0
-1104 -1262 0
-1104 -1263 0
-1104 -1264 0
-1104 -1265 0
-1104 -1266 0
-1104 -1267 0
-1104 -1269 0
-1104 -1270 0
-1105 -1111 0
-1105 -1112 0
-1105 -1113 0
-1105 -1114 0
-1105 -1115 0
-1105 -1117 0
-1105 -1118 0
-1105 -1120 0
-1105 -1261 0
-1105 -1262 0
-1105 -1264 0
-1105 -1265 0
-1105 -1266 0
-1105 -1267 0
-1105 -1268 0
-1105 -1270 0
-1106 -1111 0
-1106 -1112 0
-1106 -1113 0
-1106 -1114 0
-1106 -1115 0
-1106 -1116 0
-1106 -1118 0
-1106 -1119 0
-1106 -1120 0
-1106 -1261 0
-1106 -1262 0
-1106 -1263 0
-1106 -1265 0
-1106 -1266 0
-1106 -1267 0
-1106 -1268 0
-1106 -1269 0
-1107 -1111 0
-1107 -1112 0
-1107 -1113 0
-1107 -1114 0
-1107 -1115 0
-1107 -1116 0
-1107 -1117 0
-1107 -1119 0
-1107 -1120 0
-1107 -1262 0
-1107 -1263 0
-1107 -1264 0
-1107 -1265 0
-1107 -1266 0
-1107 -1267 0
-1107 -1268 0
-1107 -1269 0
-1107 -1270 0
-1108 -1111 0
-1108 -1113 0
-1108 -1114 0
-1108 -1116 0
-1108 -1117 0
-1108 -1118 0
-1108 -1119 0
-1108 -1120 0
-1108 -1261 0
-1108 -1263 0
-1108 -1264 0
-1108 -1266 0
-1108 -1267 0
-1108 -1268 0
-1108 -1269 0
-1108 -1270 0
-1109 -1111 0
-1109 -1112 0
-1109 -1113 0
-1109 -1114 0
-1109 -1115 0
-1109 -1116 0
-1109 -1117 0
-1109 -1118 0
-1109 -1119 0
-1109 -1261 0
-1109 -1262 0
-1109 -1263 0
-1109 -1265 0
-1109 -1266 0
-1109 -1267 0
-1109 -1268 0
-1109 -1269 0
-1110 -1112 0
-1110 -1113 0
-1110 -1114 0
-1110 -1115 0
-1110 -1116 0
-1110 -1117 0
-1110 -1118 0
-1110 -1119 0
-1110 -1120 0
-1110 -1262 0
-1110 -1263 0
-1110 -1264 0
-1110 -1265 0
-1110 -1266 0
-1110 -1267 0
-1110 -1268 0
-1110 -1269 0
-1110 -1270 0
-1111 -1271 0
-1111 -1273 0
-1111 -1274 0
-1111 -1276 0
-1111 -1277 0
-1111 -1278 0
-1111 -1279 0
-1111 -1280 0
-1112 -1271 0
-1112 -1272 0
-1112 -1273 0
-1112 -1274 0
-1112 -1275 0
-1112 -1277 0
-1112 -1278 0
-1112 -1279 0
-1112 -1280 0
-1113 -1271 0
-1113 -1272 0
-1113 -1273 0
-1113 -1274 0
-1113 -1275 0
-1113 -1276 0
-1113 -1278 0
-1113 -1279 0
-1113 -1280 0
-1114 -1271 0
-1114 -1272 0
-1114 -1273 0
-1114 -1274 0
-1114 -1275 0
-1114 -1276 0
-1114 -1277 0
-1114 -1279 0
-1114 -1280 0
-1115 -1271 0
-1115 -1272 0
-1115 -1274 0
-1115 -1275 0
-1115 -1276 0
-1115 -1277 0
-1115 -1278 0
-1115 -1280 0
-1116 -1271 0
-1116 -1272 0
-1116 -1273 0
-1116 -1275 0
-1116 -1276 0
-1116 -1277 0
-1116 -1278 0
-1116 -1279 0
-1117 -1272 0
-1117 -1273 0
-1117 -1274 0
-1117 -1275 0
-1117 -1276 0
-1117 -1277 0
-1117 -1278 0
-1117 -1279 0
-1117 -1280 0
-1118 -1271 0
-1118 -1273 0
-1118 -1274 0
-1118 -1276 0
-1118 -1277 0
-1118 -1278 0
-1118 -1279 0
-1118 -1280 0
-1119 -1271 0
-1119 -1272 0
-1119 -1273 0
-1119 -1275 0
-1119 -1276 0
-1119 -1277 0
-1119 -1278 0
-1119 -1279 0
-1120 -1272 0
-1120 -1273 0
-1120 -1274 0
-1120 -1275 0
-1120 -1276 0
-1120 -1277 0
-1120 -1278 0
-1120 -1279 0
-1120 -1280 0
-1121 -1131 0
-1121 -1133 0
-1121 -1134 0
-1121 -1136 0
-1121 -1137 0
-1121 -1138 0
-1121 -1139 0
-1121 -1140 0
-1121 -1281 0
-1121 -1283 0
-1121 -1284 0
-1121 -1286 0
-1121 -1287 0
-1121 -1288 0
-1121 -1289 0
-1121 -1290 0
-1122 -1131 0
-1122 -1132 0
-1122 -1134 0
-1122 -1135 0
-1122 -1136 0
-1122 -1137 0
-1122 -1138 0
-1122 -1139 0
-1122 -1140 0
-1122 -1281 0
-1122 -1282 0
-1122 -1283 0
-1122 -1284 0
-1122 -1285 0
-1122 -1287 0
-1122 -1288 0
-1122 -1289 0
-1122 -1290 0
-1123 -1131 0
-1123 -1132 0
-1123 -1133 0
-1123 -1135 0
-1123 -1136 0
-1123 -1137 0
-1123 -1138 0
-1123 -1139 0
-1123 -1140 0
-1123 -1281 0
-1123 -1282 0
-1123 -1283 0
-1123 -1284 0
-1123 -1285 0
-1123 -1286 0
-1123 -1288 0
-1123 -1289 0
-1123 -1290 0
-1124 -1132 0
-1124 -1133 0
-1124 -1134 0
-1124 -1135 0
-1124 -1136 0
-1124 -1137 0
-1124 -1138 0
-1124 -1139 0
-1124 -1140 0
-1124 -1281 0
-1124 -1282 0
-1124 -1283 0
-1124 -1284 0
-1124 -1285 0
-1124 -1286 0
-1124 -1287 0
-1124 -1289 0
-1124 -1290 0
-1125 -1131 0
-1125 -1132 0
-1125 -1133 0
-1125 -1134 0
-1125 -1135 0
-1125 -1137 0
-1125 -1138 0
-1125 -1140 0
-1125 -1281 0
-1125 -1282 0
-1125 -1284 0
-1125 -1285 0
-1125 -1286 0
-1125 -1287 0
-1125 -1288 0
-1125 -1290 0
-1126 -1131 0
-1126 -1132 0
-1126 -1133 0
-1126 -1134 0
-1126 -1135 0
-1126 -1136 0
-1126 -1138 0
-1126 -1139 0
-1126 -1140 0
-1126 -1281 0
-1126 -1282 0
-1126 -1283 0
-1126 -1285 0
-1126 -1286 0
-1126 -1287 0
-1126 -1288 0
-1126 -1289 0
-1127 -1131 0
-1127 -1132 0
-1127 -1133 0
-1127 -1134 0
-1127 -1135 0
-1127 -1136 0
-1127 -1137 0
-1127 -1139 0
-1127 -1140 0
-1127 -1282 0
-1127 -1283 0
-1127 -1284 0
-1127 -1285 0
-1127 -1286 0
-1127 -1287 0
-1127 -1288 0
-1127 -1289 0
-1127 -1290 0
-1128 -1131 0
-1128 -1133 0
-1128 -1134 0
-1128 -1136 0
-1128 -1137 0
-1128 -1138 0
-1128 -1139 0
-1128 -1140 0
-1128 -1281 0
-1128 -1283 0
-1128 -1284 0
-1128 -1286 0
-1128 -1287 0
-1128 -1288 0
-1128 -1289 0
-1128 -1290 0
-1129 -1131 0
-1129 -1132 0
-1129 -1133 0
-1129 -1134 0
-1129 -1135 0
-1129 -1136 0
-1129 -1137 0
-1129 -1138 0
-1129 -1139 0
-1129 -1281 0
-1129 -1282 0
-1129 -1283 0
-1129 -1285 0
-1129 -1286 0
-1129 -1287 0
-1129 -1288 0
-1129 -1289 0
-1130 -1132 0
-1130 -1133 0
-1130 -1134 0
-1130 -1135 0
-1130 -1136 0
-1130 -1137 0
-1130 -1138 0
-1130 -1139 0
-1130 -1140 0
-1130 -1282 0
-1130 -1283 0
-1130 -1284 0
-1130 -1285 0
-1130 -1286 0
-1130 -1287 0
-1130 -1288 0
-1130 -1289 0
-1130 -1290 0
-1131 -1141 0
-1131 -1143 0
-1131 -1144 0
-1131 -1146 0
-1131 -1147 0
-1131 -1148 0
-1131 -1149 0
-1131 -1150 0
-1131 -1291 0
-1131 -1293 0
-1131 -1294 0
-1131 -1296 0
-1131 -1297 0
-1131 -1298 0
-1131 -1299 0
-1131 -1300 0
-1132 -1141 0
-1132 -1142 0
-1132 -1144 0
-1132 -1145 0
-1132 -1146 0
-1132 -1147 0
-1132 -1148 0
-1132 -1149 0
-1132 -1150 0
-1132 -1291 0
-1132 -1292 0
-1132 -1293 0
-1132 -1294 0
-1132 -1295 0
-1132 -1297 0
-1132 -1298 0
-1132 -1299 0
-1132 -1300 0
-1133 -1141 0
-1133 -1142 0
-1133 -1143 0
-1133 -1145 0
-1133 -1146 0
-1133 -1147 0
-1133 -1148 0
-1133 -1149 0
-1133 -1150 0
-1133 -1291 0
-1133 -1292 0
-1133 -1293 0
-1133 -1294 0
-1133 -1295 0
-1133 -1296 0
-1133 -1298 0
-1133 -1299 0
-1133 -1300 0
-1134 -1142 0
-1134 -1143 0
-1134 -1144 0
-1134 -1145 0
-1134 -1146 0
-1134 -1147 0
-1134 -1148 0
-1134 -1149 0
-1134 -1150 0
-1134 -1291 0
-1134 -1292 0
-1134 -1293 0
-1134 -1294 0
-1134 -1295 0
-1134 -1296 0
-1134 -1297 0
-1134 -1299 0
-1134 -1300 0
-1135 -1141 0
-1135 -1142 0
-1135 -1143 0
-1135 -1144 0
-1135 -1145 0
-1135 -1147 0
-1135 -1148 0
-1135 -1150 0
-1135 -1291 0
-1135 -1292 0
-1135 -1294 0
-1135 -1295 0
-1135 -1296 0
-1135 -1297 0
-1135 -1298 0
-1135 -1300 0
-1136 -1141 0
-1136 -1142 0
-1136 -1143 0
-1136 -1144 0
-1136 -1145 0
-1136 -1146 0
-1136 -1148 0
-1136 -1149 0
-1136 -1150 0
-1136 -1291 0
-1136 -1292 0
-1136 -1293 0
-1136 -1295 0
-1136 -1296 0
-1136 -1297 0
-1136 -1298 0
-1136 -1299 0
-1137 -1141 0
-1137 -1142 0
-1137 -1143 0
-1137 -1144 0
-1137 -1145 0
-1137 -1146 0
-1137 -1147 0
-1137 -1149 0
-1137 -1150 0
-1137 -1292 0
-1137 -1293 0
-1137 -1294 0
-1137 -1295 0
-1137 -1296 0
-1137 -1297 0
-1137 -1298 0
-1137 -1299 0
-1137 -1300 0
-1138 -1141 0
-1138 -1143 0
-1138 -1144 0
-1138 -1146 0
-1138 -1147 0
-1138 -1148 0
-1138 -1149 0
-1138 -1150 0
-1138 -1291 0
-1138 -1293 0
-1138 -1294 0
-1138 -1296 0
-1138 -1297 0
-1138 -1298 0
-1138 -1299 0
-1138 -1300 0
-1139 -1141 0
-1139 -1142 0
-1139 -1143 0
-1139 -1144 0
-1139 -1145 0
-1139 -1146 0
-1139 -1147 0
-1139 -1148 0
-1139 -1149 0
-1139 -1291 0
-1139 -1292 0
-1139 -1293 0
-1139 -1295 0
-1139 -1296 0
-1139 -1297 0
-1139 -1298 0
-1139 -1299 0
-1140 -1142 0
-1140 -1143 0
-1140 -1144 0
-1140 -1145 0
-1140 -1146 0
-1140 -1147 0
-1140 -1148 0
-1140 -1149 0
-1140 -1150 0
-1140 -1292 0
-1140 -1293 0
-1140 -1294 0
-1140 -1295 0
-1140 -1296 0
-1140 -1297 0
-1140 -1298 0
-1140 -1299 0
-1140 -1300 0
-1141 -1151 0
-1141 -1153 0
-1141 -1154 0
-1141 -1156 0
-1141 -1157 0
-1141 -1158 0
-1141 -1159 0
-1141 -1160 0
-1141 -1301 0
-1141 -1303 0
-1141 -1304 0
-1141 -1306 0
-1141 -1307 0
-1141 -1308 0
-1141 -1309 0
-1141 -1310 0
-1142 -1151 0
-1142 -1152 0
-1142 -1154 0
-1142 -1155 0
-1142 -1156 0
-1142 -1157 0
-1142 -1158 0
-1142 -1159 0
-1142 -1160 0
-1142 -1301 0
-1142 -1302 0
-1142 -1303 0
-1142 -1304 0
-1142 -1305 0
-1142 -1307 0
-1142 -1308 0
-1142 -1309 0
-1142 -1310 0
-1143 -1151 0
-1143 -1152 0
-1143 -1153 0
-1143 -1155 0
-1143 -1156 0
-1143 -1157 0
-1143 -1158 0
-1143 -1159 0
-1143 -1160 0
-1143 -1301 0
-1143 -1302 0
-1143 -1303 0
-1143 -1304 0
-1143 -1305 0
-1143 -1306 0
-1143 -1308 0
-1143 -1309 0
-1143 -1310 0
-1144 -1152 0
-1144 -1153 0
-1144 -1154 0
-1144 -1155 0
-1144 -1156 0
-1144 -1157 0
-1144 -1158 0
-1144 -1159 0
-1144 -1160 0
-1144 -1301 0
-1144 -1302 0
-1144 -1303 0
-1144 -1304 0
-1144 -1305 0
-1144 -1306 0
-1144 -1307 0
-1144 -1309 0
-1144 -1310 0
-1145 -1151 0
-1145 -1152 0
-1145 -1153 0
-1145 -1154 0
-1145 -1155 0
-1145 -1157 0
-1145 -1158 0
-1145 -1160 0
-1145 -1301 0
-1145 -1302 0
-1145 -1304 0
-1145 -1305 0
-1145 -1306 0
-1145 -1307 0
-1145 -1308 0
-1145 -1310 0
-1146 -1151 0
-1146 -1152 0
-1146 -1153 0
-1146 -1154 0
-1146 -1155 0
-1146 -1156 0
-1146 -1158 0
-1146 -1159 0
-1146 -1160 0
-1146 -1301 0
-1146 -1302 0
-1146 -1303 0
-1146 -1305 0
-1146 -1306 0
-1146 -1307 0
-1146 -1308 0
-1146 -1309 0
-1147 -1151 0
-1147 -1152 0
-1147 -1153 0
-1147 -1154 0
-1147 -1155 0
-1147 -1156 0
-1147 -1157 0
-1147 -1159 0
-1147 -1160 0
-1147 -1302 0
-1147 -1303 0
-1147 -1304 0
-1147 -1305 0
-1147 -1306 0
-1147 -1307 0
-1147 -1308 0
-1147 -1309 0
-1147 -1310 0
-1148 -1151 0
-1148 -1153 0
-1148 -1154 0
-1148 -1156 0
-1148 -1157 0
-1148 -1158 0
-1148 -1159 0
-1148 -1160 0
-1148 -1301 0
-1148 -1303 0
-1148 -1304 0
-1148 -1306 0
-1148 -1307 0
-1148 -1308 0
-1148 -1309 0
-1148 -1310 0
-1149 -1151 0
-1149 -1152 0
-1149 -1153 0
-1149 -1154 0
-1149 -1155 0
-1149 -1156 0
-1149 -1157 0
-1149 -1158 0
-1149 -1159 0
-1149 -1301 0
-1149 -1302 0
-1149 -1303 0
-1149 -1305 0
-1149 -1306 0
-1149 -1307 0
-1149 -1308 0
-1149 -1309 0
-1150 -1152 0
-1150 -1153 0
-1150 -1154 0
-1150 -1155 0
-1150 -1156 0
-1150 -1157 0
-1150 -1158 0
-1150 -1159 0
-1150 -1160 0
-1150 -1302 0
-1150 -1303 0
-1150 -1304 0
-1150 -1305 0
-1150 -1306 0
-1150 -1307 0
-1150 -1308 0
-1150 -1309 0
-1150 -1310 0
-1151 -1161 0
-1151 -1163 0
-1151 -1164 0
-1151 -1166 0
-1151 -1167 0
-1151 -1168 0
-1151 -1169 0
-1151 -1170 0
-1151 -1311 0
-1151 -1313 0
-1151 -1314 0
-1151 -1316 0
-1151 -1317 0
-1151 -1318 0
-1151 -1319 0
-1151 -1320 0
-1152 -1161 0
-1152 -1162 0
-1152 -1164 0
-1152 -1165 0
-1152 -1166 0
-1152 -1167 0
-1152 -1168 0
-1152 -1169 0
-1152 -1170 0
-1152 -1311 0
-1152 -1312 0
-1152 -1313 0
-1152 -1314 0
-1152 -1315 0
-1152 -1317 0
-1152 -1318 0
-1152 -1319 0
-1152 -1320 0
-1153 -1161 0
-1153 -1162 0
-1153 -1163 0
-1153 -1165 0
-1153 -1166 0
-1153 -1167 0
-1153 -1168 0
-1153 -1169 0
-1153 -1170 0
-1153 -1311 0
-1153 -1312 0
-1153 -1313 0
-1153 -1314 0
-1153 -1315 0
-1153 -1316 0
-1153 -1318 0
-1153 -1319 0
-1153 -1320 0
-1154 -1162 0
-1154 -1163 0
-1154 -1164 0
-1154 -1165 0
-1154 -1166 0
-1154 -1167 0
-1154 -1168 0
-1154 -1169 0
-1154 -1170 0
-1154 -1311 0
-1154 -1312 0
-1154 -1313 0
-1154 -1314 0
-1154 -1315 0
-1154 -1316 0
-1154 -1317 0
-1154 -1319 0
-1154 -1320 0
-1155 -1161 0
-1155 -1162 0
-1155 -1163 0
-1155 -1164 0
-1155 -1165 0
-1155 -1167 0
-1155 -1168 0
-1155 -1170 0
-1155 -1311 0
-1155 -1312 0
-1155 -1314 0
-1155 -1315 0
-1155 -1316 0
-1155 -1317 0
-1155 -1318 0
-1155 -1320 0
-1156 -1161 0
-1156 -1162 0
-1156 -1163 0
-1156 -1164 0
-1156 -1165 0
-1156 -1166 0
-1156 -1168 0
-1156 -1169 0
-1156 -1170 0
-1156 -1311 0
-1156 -1312 0
-1156 -1313 0
-1156 -1315 0
-1156 -1316 0
-1156 -1317 0
-1156 -1318 0
-1156 -1319 0
-1157 -1161 0
-1157 -1162 0
-1157 -1163 0
-1157 -1164 0
-1157 -1165 0
-1157 -1166 0
-1157 -1167 0
-1157 -1169 0
-1157 -1170 0
-1157 -1312 0
-1157 -1313 0
-1157 -1314 0
-1157 -1315 0
-1157 -1316 0
-1157 -1317 0
-1157 -1318 0
-1157 -1319 0
-1157 -1320 0
-1158 -1161 0
-1158 -1163 0
-1158 -1164 0
-1158 -1166 0
-1158 -1167 0
-1158 -1168 0
-1158 -1169 0
-1158 -1170 0
-1158 -1311 0
-1158 -1313 0
-1158 -1314 0
-1158 -1316 0
-1158 -1317 0
-1158 -1318 0
-1158 -1319 0
-1158 -1320 0
-1159 -1161 0
-1159 -1162 0
-1159 -1163 0
-1159 -1164 0
-1159 -1165 0
-1159 -1166 0
-1159 -1167 0
-1159 -1168 0
-1159 -1169 0
-1159 -1311 0
-1159 -1312 0
-1159 -1313 0
-1159 -1315 0
-1159 -1316 0
-1159 -1317 0
-1159 -1318 0
-1159 -1319 0
-1160 -1162 0
-1160 -1163 0
-1160 -1164 0
-1160 -1165 0
-1160 -1166 0
-1160 -1167 0
-1160 -1168 0
-1160 -1169 0
-1160 -1170 0
-1160 -1312 0
-1160 -1313 0
-1160 -1314 0
-1160 -1315 0
-1160 -1316 0
-1160 -1317 0
-1160 -1318 0
-1160 -1319 0
-1160 -1320 0
-1161 -1171 0
-1161 -1173 0
-1161 -1174 0
-1161 -1176 0
-1161 -1177 0
-1161 -1178 0
-1161 -1179 0
-1161 -1180 0
-1161 -1321 0
-1161 -1323 0
-1161 -1324 0
-1161 -1326 0
-1161 -1327 0
-1161 -1328 0
-1161 -1329 0
-1161 -1330 0
-1162 -1171 0
-1162 -1172 0
-1162 -1174 0
-1162 -1175 0
-1162 -1176 0
-1162 -1177 0
-1162 -1178 0
-1162 -1179 0
-1162 -1180 0
-1162 -1321 0
-1162 -1322 0
-1162 -1323 0
-1162 -1324 0
-1162 -1325 0
-1162 -1327 0
-1162 -1328 0
-1162 -1329 0
-1162 -1330 0
-1163 -1171 0
-1163 -1172 0
-1163 -1173 0
-1163 -1175 0
-1163 -1176 0
-1163 -1177 0
-1163 -1178 0
-1163 -1179 0
-1163 -1180 0
-1163 -1321 0
-1163 -1322 0
-1163 -1323 0
-1163 -1324 0
-1163 -1325 0
-1163 -1326 0
-1163 -1328 0
-1163 -1329 0
-1163 -1330 0
-1164 -1172 0
-1164 -1173 0
-1164 -1174 0
-1164 -1175 0
-1164 -1176 0
-1164 -1177 0
-1164 -1178 0
-1164 -1179 0
-1164 -1180 0
-1164 -1321 0
-1164 -1322 0
-1164 -1323 0
-1164 -1324 0
-1164 -1325 0
-1164 -1326 0
-1164 -1327 0
-1164 -1329 0
-1164 -1330 0
-1165 -1171 0
-1165 -1172 0
-1165 -1173 0
-1165 -1174 0
-1165 -1175 0
-1165 -1177 0
-1165 -1178 0
-1165 -1180 0
-1165 -1321 0
-1165 -1322 0
-1165 -1324 0
-1165 -1325 0
-1165 -1326 0
-1165 -1327 0
-1165 -1328 0
-1165 -1330 0
-1166 -1171 0
-1166 -1172 0
-1166 -1173 0
-1166 -1174 0
-1166 -1175 0
-1166 -1176 0
-1166 -1178 0
-1166 -1179 0
-1166 -1180 0
-1166 -1321 0
-1166 -1322 0
-1166 -1323 0
-1166 -1325 0
-1166 -1326 0
-1166 -1327 0
-1166 -1328 0
-1166 -1329 0
-1167 -1171 0
-1167 -1172 0
-1167 -1173 0
-1167 -1174 0
-1167 -1175 0
-1167 -1176 0
-1167 -1177 0
-1167 -1179 0
-1167 -1180 0
-1167 -1322 0
-1167 -1323 0
-1167 -1324 0
-1167 -1325 0
-1167 -1326 0
-1167 -1327 0
-1167 -1328 0
-1167 -1329 0
-1167 -1330 0
-1168 -1171 0
-1168 -1173 0
-1168 -1174 0
-1168 -1176 0
-1168 -1177 0
-1168 -1178 0
-1168 -1179 0
-1168 -1180 0
-1168 -1321 0
-1168 -1323 0
-1168 -1324 0
-1168 -1326 0
-1168 -1327 0
-1168 -1328 0
-1168 -1329 0
-1168 -1330 0
-1169 -1171 0
-1169 -1172 0
-1169 -1173 0
-1169 -1174 0
-1169 -1175 0
-1169 -1176 0
-1169 -1177 0
-1169 -1178 0
-1169 -1179 0
-1169 -1321 0
-1169 -1322 0
-1169 -1323 0
-1169 -1325 0
-1169 -1326 0
-1169 -1327 0
-1169 -1328 0
-1169 -1329 0
-1170 -1172 0
-1170 -1173 0
-1170 -1174 0
-1170 -1175 0
-1170 -1176 0
-1170 -1177 0
-1170 -1178 0
-1170 -1179 0
-1170 -1180 0
-1170 -1322 0
-1170 -1323 0
-1170 -1324 0
-1170 -1325 0
-1170 -1326 0
-1170 -1327 0
-1170 -1328 0
-1170 -1329 0
-1170 -1330 0
-1171 -1181 0
-1171 -1183 0
-1171 -1184 0
-1171 -1186 0
-1171 -1187 0
-1171 -1188 0
-1171 -1189 0
-1171 -1190 0
-1171 -1331 0
-1171 -1333 0
-1171 -1334 0
-1171 -1336 0
-1171 -1337 0
-1171 -1338 0
-1171 -1339 0
-1171 -1340 0
-1172 -1181 0
-1172 -1182 0
-1172 -1184 0
-1172 -1185 0
-1172 -1186 0
-1172 -1187 0
-1172 -1188 0
-1172 -1189 0
-1172 -1190 0
-1172 -1331 0
-1172 -1332 0
-1172 -1333 0
-1172 -1334 0
-1172 -1335 0
-1172 -1337 0
-1172 -1338 0
-1172 -1339 0
-1172 -1340 0
-1173 -1181 0
-1173 -1182 0
-1173 -1183 0
-1173 -1185 0
-1173 -1186 0
-1173 -1187 0
-1173 -1188 0
-1173 -1189 0
-1173 -1190 0
-1173 -1331 0
-1173 -1332 0
-1173 -1333 0
-1173 -1334 0
-1173 -1335 0
-1173 -1336 0
-1173 -1338 0
-1173 -1339 0
-1173 -1340 0
-1174 -1182 0
-1174 -1183 0
-1174 -1184 0
-1174 -1185 0
-1174 -1186 0
-1174 -1187 0
-1174 -1188 0
-1174 -1189 0
-1174 -1190 0
-1174 -1331 0
-1174 -1332 0
-1174 -1333 0
-1174 -1334 0
-1174 -1335 0
-1174 -1336 0
-1174 -1337 0
-1174 -1339 0
-1174 -1340 0
-1175 -1181 0
-1175 -1182 0
-1175 -1183 0
-1175 -1184 0
-1175 -1185 0
-1175 -1187 0
-1175 -1188 0
-1175 -1190 0
-1175 -1331 0
-1175 -1332 0
-1175 -1334 0
-1175 -1335 0
-1175 -1336 0
-1175 -1337 0
-1175 -1338 0
-1175 -1340 0
-1176 -1181 0
-1176 -1182 0
-1176 -1183 0
-1176 -1184 0
-1176 -1185 0
-1176 -1186 0
-1176 -1188 0
-1176 -1189 0
-1176 -1190 0
-1176 -1331 0
-1176 -1332 0
-1176 -1333 0
-1176 -1335 0
-1176 -1336 0
-1176 -1337 0
-1176 -1338 0
-1176 -1339 0
-1177 -1181 0
-1177 -1182 0
-1177 -1183 0
-1177 -1184 0
-1177 -1185 0
-1177 -1186 0
-1177 -1187 0
-1177 -1189 0
-1177 -1190 0
-1177 -1332 0
-1177 -1333 0
-1177 -1334 0
-1177 -1335 0
-1177 -1336 0
-1177 -1337 0
-1177 -1338 0
-1177 -1339 0
-1177 -1340 0
-1178 -1181 0
-1178 -1183 0
-1178 -1184 0
-1178 -1186 0
-1178 -1187 0
-1178 -1188 0
-1178 -1189 0
-1178 -1190 0
-1178 -1331 0
-1178 -1333 0
-1178 -1334 0
-1178 -1336 0
-1178 -1337 0
-1178 -1338 0
-1178 -1339 0
-1178 -1340 0
-1179 -1181 0
-1179 -1182 0
-1179 -1183 0
-1179 -1184 0
-1179 -1185 0
-1179 -1186 0
-1179 -1187 0
-1179 -1188 0
-1179 -1189 0
-1179 -1331 0
-1179 -1332 0
-1179 -1333 0
-1179 -1335 0
-1179 -1336 0
-1179 -1337 0
-1179 -1338 0
-1179 -1339 0
-1180 -1182 0
-1180 -1183 0
-1180 -1184 0
-1180 -1185 0
-1180 -1186 0
-1180 -1187 0
-1180 -1188 0
-1180 -1189 0
-1180 -1190 0
-1180 -1332 0
-1180 -1333 0
-1180 -1334 0
-1180 -1335 0
-1180 -1336 0
-1180 -1337 0
-1180 -1338 0
-1180 -1339 0
-1180 -1340 0
-1181 -1191 0
-1181 -1193 0
-1181 -1194 0
-1181 -1196 0
-1181 -1197 0
-1181 -1198 0
-1181 -1199 0
-1181 -1200 0
-1181 -1341 0
-1181 -1343 0
-1181 -1344 0
-1181 -1346 0
-1181 -1347 0
-1181 -1348 0
-1181 -1349 0
-1181 -1350 0
-1182 -1191 0
-1182 -1192 0
-1182 -1194 0
-1182 -1195 0
-1182 -1196 0
-1182 -1197 0
-1182 -1198 0
-1182 -1199 0
-1182 -1200 0
-1182 -1341 0
-1182 -1342 0
-1182 -1343 0
-1182 -1344 0
-1182 -1345 0
-1182 -1347 0
-1182 -1348 0
-1182 -1349 0
-1182 -1350 0
-1183 -1191 0
-1183 -1192 0
-1183 -1193 0
-1183 -1195 0
-1183 -1196 0
-1183 -1197 0
-1183 -1198 0
-1183 -1199 0
-1183 -1200 0
-1183 -1341 0
-1183 -1342 0
-1183 -1343 0
-1183 -1344 0
-1183 -1345 0
-1183 -1346 0
-1183 -1348 0
-1183 -1349 0
-1183 -1350 0
-1184 -1192 0
-1184 -1193 0
-1184 -1194 0
-1184 -1195 0
-1184 -1196 0
-1184 -1197 0
-1184 -1198 0
-1184 -1199 0
-1184 -1200 0
-1184 -1341 0
-1184 -1342 0
-1184 -1343 0
-1184 -1344 0
-1184 -1345 0
-1184 -1346 0
-1184 -1347 0
-1184 -1349 0
-1184 -1350 0
-1185 -1191 0
-1185 -1192 0
-1185 -1193 0
-1185 -1194 0
-1185 -1195 0
-1185 -1197 0
-1185 -1198 0
-1185 -1200 0
-1185 -1341 0
-1185 -1342 0
-1185 -1344 0
-1185 -1345 0
-1185 -1346 0
-1185 -1347 0
-1185 -1348 0
-1185 -1350 0
-1186 -1191 0
-1186 -1192 0
-1186 -1193 0
-1186 -1194 0
-1186 -1195 0
-1186 -1196 0
-1186 -1198 0
-1186 -1199 0
-1186 -1200 0
-1186 -1341 0
-1186 -1342 0
-1186 -1343 0
-1186 -1345 0
-1186 -1346 0
-1186 -1347 0
-1186 -1348 0
-1186 -1349 0
-1187 -1191 0
-1187 -1192 0
-1187 -1193 0
-1187 -1194 0
-1187 -1195 0
-1187 -1196 0
-1187 -1197 0
-1187 -1199 0
-1187 -1200 0
-1187 -1342 0
-1187 -1343 0
-1187 -1344 0
-1187 -1345 0
-1187 -1346 0
-1187 -1347 0
-1187 -1348 0
-1187 -1349 0
-1187 -1350 0
-1188 -1191 0
-1188 -1193 0
-1188 -1194 0
-1188 -1196 0
-1188 -1197 0
-1188 -1198 0
-1188 -1199 0
-1188 -1200 0
-1188 -1341 0
-1188 -1343 0
-1188 -1344 0
-1188 -1346 0
-1188 -1347 0
-1188 -1348 0
-1188 -1349 0
-1188 -1350 0
-1189 -1191 0
-1189 -1192 0
-1189 -1193 0
-1189 -1194 0
-1189 -1195 0
-1189 -1196 0
-1189 -1197 0
-1189 -1198 0
-1189 -1199 0
-1189 -1341 0
-1189 -1342 0
-1189 -1343 0
-1189 -1345 0
-1189 -1346 0
-1189 -1347 0
-1189 -1348 0
-1189 -1349 0
-1190 -1192 0
-1190 -1193 0
-1190 -1194 0
-1190 -1195 0
-1190 -1196 0
-1190 -1197 0
-1190 -1198 0
-1190 -1199 0
-1190 -1200 0
-1190 -1342 0
-1190 -1343 0
-1190 -1344 0
-1190 -1345 0
-1190 -1346 0
-1190 -1347 0
-1190 -1348 0
-1190 -1349 0
-1190 -1350 0
-1191 -1201 0
-1191 -1203 0
-1191 -1204 0
-1191 -1206 0
-1191 -1207 0
-1191 -1208 0
-1191 -1209 0
-1191 -1210 0
-1191 -1351 0
-1191 -1353 0
-1191 -1354 0
-1191 -1356 0
-1191 -1357 0
-1191 -1358 0
-1191 -1359 0
-1191 -1360 0
-1192 -1201 0
-1192 -1202 0
-1192 -1204 0
-1192 -1205 0
-1192 -1206 0
-1192 -1207 0
-1192 -1208 0
-1192 -1209 0
-1192 -1210 0
-1192 -1351 0
-1192 -1352 0
-1192 -1353 0
-1192 -1354 0
-1192 -1355 0
-1192 -1357 0
-1192 -1358 0
-1192 -1359 0
-1192 -1360 0
-1193 -1201 0
-1193 -1202 0
-1193 -1203 0
-1193 -1205 0
-1193 -1206 0
-1193 -1207 0
-1193 -1208 0
-1193 -1209 0
-1193 -1210 0
-1193 -1351 0
-1193 -1352 0
-1193 -1353 0
-1193 -1354 0
-1193 -1355 0
-1193 -1356 0
-1193 -1358 0
-1193 -1359 0
-1193 -1360 0
-1194 -1202 0
-1194 -1203 0
-1194 -1204 0
-1194 -1205 0
-1194 -1206 0
-1194 -1207 0
-1194 -1208 0
-1194 -1209 0
-1194 -1210 0
-1194 -1351 0
-1194 -1352 0
-1194 -1353 0
-1194 -1354 0
-1194 -1355 0
-1194 -1356 0
-1194 -1357 0
-1194 -1359 0
-1194 -1360 0
-1195 -1201 0
-1195 -1202 0
-1195 -1203 0
-1195 -1204 0
-1195 -1205 0
-1195 -1207 0
-1195 -1208 0
-1195 -1210 0
-1195 -1351 0
-1195 -1352 0
-1195 -1354 0
-1195 -1355 0
-1195 -1356 0
-1195 -1357 0
-1195 -1358 0
-1195 -1360 0
-1196 -1201 0
-1196 -1202 0
-1196 -1203 0
-1196 -1204 0
-1196 -1205 0
-1196 -1206 0
-1196 -1208 0
-1196 -1209 0
-1196 -1210 0
-1196 -1351 0
-1196 -1352 0
-1196 -1353 0
-1196 -1355 0
-1196 -1356 0
-1196 -1357 0
-1196 -1358 0
-1196 -1359 0
-1197 -1201 0
-1197 -1202 0
-1197 -1203 0
-1197 -1204 0
-1197 -1205 0
-1197 -1206 0
-1197 -1207 0
-1197 -1209 0
-1197 -1210 0
-1197 -1352 0
-1197 -1353 0
-1197 -1354 0
-1197 -1355 0
-1197 -1356 0
-1197 -1357 0
-1197 -1358 0
-1197 -1359 0
-1197 -1360 0
-1198 -1201 0
-1198 -1203 0
-1198 -1204 0
-1198 -1206 0
-1198 -1207 0
-1198 -1208 0
-1198 -1209 0
-1198 -1210 0
-1198 -1351 0
-1198 -1353 0
-1198 -1354 0
-1198 -1356 0
-1198 -1357 0
-1198 -1358 0
-1198 -1359 0
-1198 -1360 0
-1199 -1201 0
-1199 -1202 0
-1199 -1203 0
-1199 -1204 0
-1199 -1205 0
-1199 -1206 0
-1199 -1207 0
-1199 -1208 0
-1199 -1209 0
-1199 -1351 0
-1199 -1352 0
-1199 -1353 0
-1199 -1355 0
-1199 -1356 0
-1199 -1357 0
-1199 -1358 0
-1199 -1359 0
-1200 -1202 0
-1200 -1203 0
-1200 -1204 0
-1200 -1205 0
-1200 -1206 0
-1200 -1207 0
-1200 -1208 0
-1200 -1209 0
-1200 -1210 0
-1200 -1352 0
-1200 -1353 0
-1200 -1354 0
-1200 -1355 0
-1200 -1356 0
-1200 -1357 0
-1200 -1358 0
-1200 -1359 0
-1200 -1360 0
-1201 -1211 0
-1201 -1213 0
-1201 -1214 0
-1201 -1216 0
-1201 -1217 0
-1201 -1218 0
-1201 -1219 0
-1201 -1220 0
-1201 -1361 0
-1201 -1363 0
-1201 -1364 0
-1201 -1366 0
-1201 -1367 0
-1201 -1368 0
-1201 -1369 0
-1201 -1370 0
-1202 -1211 0
-1202 -1212 0
-1202 -1214 0
-1202 -1215 0
-1202 -1216 0
-1202 -1217 0
-1202 -1218 0
-1202 -1219 0
-1202 -1220 0
-1202 -1361 0
-1202 -1362 0
-1202 -1363 0
-1202 -1364 0
-1202 -1365 0
-1202 -1367 0
-1202 -1368 0
-1202 -1369 0
-1202 -1370 0
-1203 -1211 0
-1203 -1212 0
-1203 -1213 0
-1203 -1215 0
-1203 -1216 0
-1203 -1217 0
-1203 -1218 0
-1203 -1219 0
-1203 -1220 0
-1203 -1361 0
-1203 -1362 0
-1203 -1363 0
-1203 -1364 0
-1203 -1365 0
-1203 -1366 0
-1203 -1368 0
-1203 -1369 0
-1203 -1370 0
-1204 -1212 0
-1204 -1213 0
-1204 -1214 0
-1204 -1215 0
-1204 -1216 0
-1204 -1217 0
-1204 -1218 0
-1204 -1219 0
-1204 -1220 0
-1204 -1361 0
-1204 -1362 0
-1204 -1363 0
-1204 -1364 0
-1204 -1365 0
-1204 -1366 0
-1204 -1367 0
-1204 -1369 0
-1204 -1370 0
-1205 -1211 0
-1205 -1212 0
-1205 -1213 0
-1205 -1214 0
-1205 -1215 0
-1205 -1217 0
-1205 -1218 0
-1205 -1220 0
-1205 -1361 0
-1205 -1362 0
-1205 -1364 0
-1205 -1365 0
-1205 -1366 0
-1205 -1367 0
-1205 -1368 0
-1205 -1370 0
-1206 -1211 0
-1206 -1212 0
-1206 -1213 0
-1206 -1214 0
-1206 -1215 0
-1206 -1216 0
-1206 -1218 0
-1206 -1219 0
-1206 -1220 0
-1206 -1361 0
-1206 -1362 0
-1206 -1363 0
-1206 -1365 0
-1206 -1366 0
-1206 -1367 0
-1206 -1368 0
-1206 -1369 0
-1207 -1211 0
-1207 -1212 0
-1207 -1213 0
-1207 -1214 0
-1207 -1215 0
-1207 -1216 0
-1207 -1217 0
-1207 -1219 0
-1207 -1220 0
-1207 -1362 0
-1207 -1363 0
-1207 -1364 0
-1207 -1365 0
-1207 -1366 0
-1207 -1367 0
-1207 -1368 0
-1207 -1369 0
-1207 -1370 0
-1208 -1211 0
-1208 -1213 0
-1208 -1214 0
-1208 -1216 0
-1208 -1217 0
-1208 -1218 0
-1208 -1219 0
-1208 -1220 0
-1208 -1361 0
-1208 -1363 0
-1208 -1364 0
-1208 -1366 0
-1208 -1367 0
-1208 -1368 0
-1208 -1369 0
-1208 -1370 0
-1209 -1211 0
-1209 -1212 0
-1209 -1213 0
-1209 -1214 0
-1209 -1215 0
-1209 -1216 0
-1209 -1217 0
-1209 -1218 0
-1209 -1219 0
-1209 -1361 0
-1209 -1362 0
-1209 -1363 0
-1209 -1365 0
-1209 -1366 0
-1209 -1367 0
-1209 -1368 0
-1209 -1369 0
-1210 -1212 0
-1210 -1213 0
-1210 -1214 0
-1210 -1215 0
-1210 -1216 0
-1210 -1217 0
-1210 -1218 0
-1210 -1219 0
-1210 -1220 0
-1210 -1362 0
-1210 -1363 0
-1210 -1364 0
-1210 -1365 0
-1210 -1366 0
-1210 -1367 0
-1210 -1368 0
-1210 -1369 0
-1210 -1370 0
-1211 -1221 0
-1211 -1223 0
-1211 -1224 0
-1211 -1226 0
-1211 -1227 0
-1211 -1228 0
-1211 -1229 0
-1211 -1230 0
-1211 -1371 0
-1211 -1373 0
-1211 -1374 0
-1211 -1376 0
-1211 -1377 0
-1211 -1378 0
-1211 -1379 0
-1211 -1380 0
-1212 -1221 0
-1212 -1222 0
-1212 -1224 0
-1212 -1225 0
-1212 -1226 0
-1212 -1227 0
-1212 -1228 0
-1212 -1229 0
-1212 -1230 0
-1212 -1371 0
-1212 -1372 0
-1212 -1373 0
-1212 -1374 0
-1212 -1375 0
-1212 -1377 0
-1212 -1378 0
-1212 -1379 0
-1212 -1380 0
-1213 -1221 0
-1213 -1222 0
-1213 -1223 0
-1213 -1225 0
-1213 -1226 0
-1213 -1227 0
-1213 -1228 0
-1213 -1229 0
-1213 -1230 0
-1213 -1371 0
-1213 -1372 0
-1213 -1373 0
-1213 -1374 0
-1213 -1375 0
-1213 -1376 0
-1213 -1378 0
-1213 -1379 0
-1213 -1380 0
-1214 -1222 0
-1214 -1223 0
-1214 -1224 0
-1214 -1225 0
-1214 -1226 0
-1214 -1227 0
-1214 -1228 0
-1214 -1229 0
-1214 -1230 0
-1214 -1371 0
-1214 -1372 0
-1214 -1373 0
-1214 -1374 0
-1214 -1375 0
-1214 -1376 0
-1214 -1377 0
-1214 -1379 0
-1214 -1380 0
-1215 -1221 0
-1215 -1222 0
-1215 -1223 0
-1215 -1224 0
-1215 -1225 0
-1215 -1227 0
-1215 -1228 0
-1215 -1230 0
-1215 -1371 0
-1215 -1372 0
-1215 -1374 0
-1215 -1375 0
-1215 -1376 0
-1215 -1377 0
-1215 -1378 0
-1215 -1380 0
-1216 -1221 0
-1216 -1222 0
-1216 -1223 0
-1216 -1224 0
-1216 -1225 0
-1216 -1226 0
-1216 -1228 0
-1216 -1229 0
-1216 -1230 0
-1216 -1371 0
-1216 -1372 0
-1216 -1373 0
-1216 -1375 0
-1216 -1376 0
-1216 -1377 0
-1216 -1378 0
-1216 -1379 0
-1217 -1221 0
-1217 -1222 0
-1217 -1223 0
-1217 -1224 0
-1217 -1225 0
-1217 -1226 0
-1217 -1227 0
-1217 -1229 0
-1217 -1230 0
-1217 -1372 0
-1217 -1373 0
-1217 -1374 0
-1217 -1375 0
-1217 -1376 0
-1217 -1377 0
-1217 -1378 0
-1217 -1379 0
-1217 -1380 0
-1218 -1221 0
-1218 -1223 0
-1218 -1224 0
-1218 -1226 0
-1218 -1227 0
-1218 -1228 0
-1218 -1229 0
-1218 -1230 0
-1218 -1371 0
-1218 -1373 0
-1218 -1374 0
-1218 -1376 0
-1218 -1377 0
-1218 -1378 0
-1218 -1379 0
-1218 -1380 0
-1219 -1221 0
-1219 -1222 0
-1219 -1223 0
-1219 -1224 0
-1219 -1225 0
-1219 -1226 0
-1219 -1227 0
-1219 -1228 0
-1219 -1229 0
-1219 -1371 0
-1219 -1372 0
-1219 -1373 0
-1219 -1375 0
-1219 -1376 0
-1219 -1377 0
-1219 -1378 0
-1219 -1379 0
-1220 -1222 0
-1220 -1223 0
-1220 -1224 0
-1220 -1225 0
-1220 -1226 0
-1220 -1227 0
-1220 -1228 0
-1220 -1229 0
-1220 -1230 0
-1220 -1372 0
-1220 -1373 0
-1220 -1374 0
-1220 -1375 0
-1220 -1376 0
-1220 -1377 0
-1220 -1378 0
-1220 -1379 0
-1220 -1380 0
-1221 -1231 0
-1221 -1233 0
-1221 -1234 0
-1221 -1236 0
-1221 -1237 0
-1221 -1238 0
-1221 -1239 0
-1221 -1240 0
-1221 -1381 0
-1221 -1383 0
-1221 -1384 0
-1221 -1386 0
-1221 -1387 0
-1221 -1388 0
-1221 -1389 0
-1221 -1390 0
-1222 -1231 0
-1222 -1232 0
-1222 -1234 0
-1222 -1235 0
-1222 -1236 0
-1222 -1237 0
-1222 -1238 0
-1222 -1239 0
-1222 -1240 0
-1222 -1381 0
-1222 -1382 0
-1222 -1383 0
-1222 -1384 0
-1222 -1385 0
-1222 -1387 0
-1222 -1388 0
-1222 -1389 0
-1222 -1390 0
-1223 -1231 0
-1223 -1232 0
-1223 -1233 0
-1223 -1235 0
-1223 -1236 0
-1223 -1237 0
-1223 -1238 0
-1223 -1239 0
-1223 -1240 0
-1223 -1381 0
-1223 -1382 0
-1223 -1383 0
-1223 -1384 0
-1223 -1385 0
-1223 -1386 0
-1223 -1388 0
-1223 -1389 0
-1223 -1390 0
-1224 -1232 0
-1224 -1233 0
-1224 -1234 0
-1224 -1235 0
-1224 -1236 0
-1224 -1237 0
-1224 -1238 0
-1224 -1239 0
-1224 -1240 0
-1224 -1381 0
-1224 -1382 0
-1224 -1383 0
-1224 -1384 0
-1224 -1385 0
-1224 -1386 0
-1224 -1387 0
-1224 -1389 0
-1224 -1390 0
-1225 -1231 0
-1225 -1232 0
-1225 -1233 0
-1225 -1234 0
-1225 -1235 0
-1225 -1237 0
-1225 -1238 0
-1225 -1240 0
-1225 -1381 0
-1225 -1382 0
-1225 -1384 0
-1225 -1385 0
-1225 -1386 0
-1225 -1387 0
-1225 -1388 0
-1225 -1390 0
-1226 -1231 0
-1226 -1232 0
-1226 -1233 0
-1226 -1234 0
-1226 -1235 0
-1226 -1236 0
-1226 -1238 0
-1226 -1239 0
-1226 -1240 0
-1226 -1381 0
-1226 -1382 0
-1226 -1383 0
-1226 -1385 0
-1226 -1386 0
-1226 -1387 0
-1226 -1388 0
-1226 -1389 0
-1227 -1231 0
-1227 -1232 0
-1227 -1233 0
-1227 -1234 0
-1227 -1235 0
-1227 -1236 0
-1227 -1237 0
-1227 -1239 0
-1227 -1240 0
-1227 -1382 0
-1227 -1383 0
-1227 -1384 0
-1227 -1385 0
-1227 -1386 0
-1227 -1387 0
-1227 -1388 0
-1227 -1389 0
-1227 -1390 0
-1228 -1231 0
-1228 -1233 0
-1228 -1234 0
-1228 -1236 0
-1228 -1237 0
-1228 -1238 0
-1228 -1239 0
-1228 -1240 0
-1228 -1381 0
-1228 -1383 0
-1228 -1384 0
-1228 -1386 0
-1228 -1387 0
-1228 -1388 0
-1228 -1389 0
-1228 -1390 0
-1229 -1231 0
-1229 -1232 0
-1229 -1233 0
-1229 -1234 0
-1229 -1235 0
-1229 -1236 0
-1229 -1237 0
-1229 -1238 0
-1229 -1239 0
-1229 -1381 0
-1229 -1382 0
-1229 -1383 0
-1229 -1385 0
-1229 -1386 0
-1229 -1387 0
-1229 -1388 0
-1229 -1389 0
-1230 -1232 0
-1230 -1233 0
-1230 -1234 0
-1230 -1235 0
-1230 -1236 0
-1230 -1237 0
-1230 -1238 0
-1230 -1239 0
-1230 -1240 0
-1230 -1382 0
-1230 -1383 0
-1230 -1384 0
-1230 -1385 0
-1230 -1386 0
-1230 -1387 0
-1230 -1388 0
-1230 -1389 0
-1230 -1390 0
-1231 -1241 0
-1231 -1243 0
-1231 -1244 0
-1231 -1246 0
-1231 -1247 0
-1231 -1248 0
-1231 -1249 0
-1231 -1250 0
-1231 -1391 0
-1231 -1393 0
-1231 -1394 0
-1231 -1396 0
-1231 -1397 0
-1231 -1398 0
-1231 -1399 0
-1231 -1400 0
-1232 -1241 0
-1232 -1242 0
-1232 -1244 0
-1232 -1245 0
-1232 -1246 0
-1232 -1247 0
-1232 -1248 0
-1232 -1249 0
-1232 -1250 0
-1232 -1391 0
-1232 -1392 0
-1232 -1393 0
-1232 -1394 0
-1232 -1395 0
-1232 -1397 0
-1232 -1398 0
-1232 -1399 0
-1232 -1400 0
-1233 -1241 0
-1233 -1242 0
-1233 -1243 0
-1233 -1245 0
-1233 -1246 0
-1233 -1247 0
-1233 -1248 0
-1233 -1249 0
-1233 -1250 0
-1233 -1391 0
-1233 -1392 0
-1233 -1393 0
-1233 -1394 0
-1233 -1395 0
-1233 -1396 0
-1233 -1398 0
-1233 -1399 0
-1233 -1400 0
-1234 -1242 0
-1234 -1243 0
-1234 -1244 0
-1234 -1245 0
-1234 -1246 0
-1234 -1247 0
-1234 -1248 0
-1234 -1249 0
-1234 -1250 0
-1234 -1391 0
-1234 -1392 0
-1234 -1393 0
-1234 -1394 0
-1234 -1395 0
-1234 -1396 0
-1234 -1397 0
-1234 -1399 0
-1234 -1400 0
-1235 -1241 0
-1235 -1242 0
-1235 -1243 0
-1235 -1244 0
-1235 -1245 0
-1235 -1247 0
-1235 -1248 0
-1235 -1250 0
-1235 -1391 0
-1235 -1392 0
-1235 -1394 0
-1235 -1395 0
-1235 -1396 0
-1235 -1397 0
-1235 -1398 0
-1235 -1400 0
-1236 -1241 0
-1236 -1242 0
-1236 -1243 0
-1236 -1244 0
-1236 -1245 0
-1236 -1246 0
-1236 -1248 0
-1236 -1249 0
-1236 -1250 0
-1236 -1391 0
-1236 -1392 0
-1236 -1393 0
-1236 -1395 0
-1236 -1396 0
-1236 -1397 0
-1236 -1398 0
-1236 -1399 0
-1237 -1241 0
-1237 -1242 0
-1237 -1243 0
-1237 -1244 0
-1237 -1245 0
-1237 -1246 0
-1237 -1247 0
-1237 -1249 0
-1237 -1250 0
-1237 -1392 0
-1237 -1393 0
-1237 -1394 0
-1237 -1395 0
-1237 -1396 0
-1237 -1397 0
-1237 -1398 0
-1237 -1399 0
-1237 -1400 0
-1238 -1241 0
-1238 -1243 0
-1238 -1244 0
-1238 -1246 0
-1238 -1247 0
-1238 -1248 0
-1238 -1249 0
-1238 -1250 0
-1238 -1391 0
-1238 -1393 0
-1238 -1394 0
-1238 -1396 0
-1238 -1397 0
-1238 -1398 0
-1238 -1399 0
-1238 -1400 0
-1239 -1241 0
-1239 -1242 0
-1239 -1243 0
-1239 -1244 0
-1239 -1245 0
-1239 -1246 0
-1239 -1247 0
-1239 -1248 0
-1239 -1249 0
-1239 -1391 0
-1239 -1392 0
-1239 -1393 0
-1239 -1395 0
-1239 -1396 0
-1239 -1397 0
-1239 -1398 0
-1239 -1399 0
-1240 -1242 0
-1240 -1243 0
-1240 -1244 0
-1240 -1245 0
-1240 -1246 0
-1240 -1247 0
-1240 -1248 0
-1240 -1249 0
-1240 -1250 0
-1240 -1392 0
-1240 -1393 0
-1240 -1394 0
-1240 -1395 0
-1240 -1396 0
-1240 -1397 0
-1240 -1398 0
-1240 -1399 0
-1240 -1400 0
-1241 -1251 0
-1241 -1253 0
-1241 -1254 0
-1241 -1256 0
-1241 -1257 0
-1241 -1258 0
-1241 -1259 0
-1241 -1260 0
-1241 -1401 0
-1241 -1403 0
-1241 -1404 0
-1241 -1406 0
-1241 -1407 0
-1241 -1408 0
-1241 -1409 0
-1241 -1410 0
-1242 -1251 0
-1242 -1252 0
-1242 -1254 0
-1242 -1255 0
-1242 -1256 0
-1242 -1257 0
-1242 -1258 0
-1242 -1259 0
-1242 -1260 0
-1242 -1401 0
-1242 -1402 0
-1242 -1403 0
-1242 -1404 0
-1242 -1405 0
-1242 -1407 0
-1242 -1408 0
-1242 -1409 0
-1242 -1410 0
-1243 -1251 0
-1243 -1252 0
-1243 -1253 0
-1243 -1255 0
-1243 -1256 0
-1243 -1257 0
-1243 -1258 0
-1243 -1259 0
-1243 -1260 0
-1243 -1401 0
-1243 -1402 0
-1243 -1403 0
-1243 -1404 0
-1243 -1405 0
-1243 -1406 0
-1243 -1408 0
-1243 -1409 0
-1243 -1410 0
-1244 -1252 0
-1244 -1253 0
-1244 -1254 0
-1244 -1255 0
-1244 -1256 0
-1244 -1257 0
-1244 -1258 0
-1244 -1259 0
-1244 -1260 0
-1244 -1401 0
-1244 -1402 0
-1244 -1403 0
-1244 -1404 0
-1244 -1405 0
-1244 -1406 0
-1244 -1407 0
-1244 -1409 0
-1244 -1410 0
-1245 -1251 0
-1245 -1252 0
-1245 -1253 0
-1245 -1254 0
-1245 -1255 0
-1245 -1257 0
-1245 -1258 0
-1245 -1260 0
-1245 -1401 0
-1245 -1402 0
-1245 -1404 0
-1245 -1405 0
-1245 -1406 0
-1245 -1407 0
-1245 -1408 0
-1245 -1410 0
-1246 -1251 0
-1246 -1252 0
-1246 -1253 0
-1246 -1254 0
-1246 -1255 0
-1246 -1256 0
-1246 -1258 0
-1246 -1259 0
-1246 -1260 0
-1246 -1401 0
-1246 -1402 0
-1246 -1403 0
-1246 -1405 0
-1246 -1406 0
-1246 -1407 0
-1246 -1408 0
-1246 -1409 0
-1247 -1251 0
-1247 -1252 0
-1247 -1253 0
-1247 -1254 0
-1247 -1255 0
-1247 -1256 0
-1247 -1257 0
-1247 -1259 0
-1247 -1260 0
-1247 -1402 0
-1247 -1403 0
-1247 -1404 0
-1247 -1405 0
-1247 -1406 0
-1247 -1407 0
-1247 -1408 0
-1247 -1409 0
-1247 -1410 0
-1248 -1251 0
-1248 -1253 0
-1248 -1254 0
-1248 -1256 0
-1248 -1257 0
-1248 -1258 0
-1248 -1259 0
-1248 -1260 0
-1248 -1401 0
-1248 -1403 0
-1248 -1404 0
-1248 -1406 0
-1248 -1407 0
-1248 -1408 0
-1248 -1409 0
-1248 -1410 0
-1249 -1251 0
-1249 -1252 0
-1249 -1253 0
-1249 -1254 0
-1249 -1255 0
-1249 -1256 0
-1249 -1257 0
-1249 -1258 0
-1249 -1259 0
-1249 -1401 0
-1249 -1402 0
-1249 -1403 0
-1249 -1405 0
-1249 -1406 0
-1249 -1407 0
-1249 -1408 0
-1249 -1409 0
-1250 -1252 0
-1250 -1253 0
-1250 -1254 0
-1250 -1255 0
-1250 -1256 0
-1250 -1257 0
-1250 -1258 0
-1250 -1259 0
-1250 -1260 0
-1250 -1402 0
-1250 -1403 0
-1250 -1404 0
-1250 -1405 0
-1250 -1406 0
-1250 -1407 0
-1250 -1408 0
-1250 -1409 0
-1250 -1410 0
-1251 -1261 0
-1251 -1263 0
-1251 -1264 0
-1251 -1266 0
-1251 -1267 0
-1251 -1268 0
-1251 -1269 0
-1251 -1270 0
-1251 -1411 0
-1251 -1413 0
-1251 -1414 0
-1251 -1416 0
-1251 -1417 0
-1251 -1418 0
-1251 -1419 0
-1251 -1420 0
-1252 -1261 0
-1252 -1262 0
-1252 -1264 0
-1252 -1265 0
-1252 -1266 0
-1252 -1267 0
-1252 -1268 0
-1252 -1269 0
-1252 -1270 0
-1252 -1411 0
-1252 -1412 0
-1252 -1413 0
-1252 -1414 0
-1252 -1415 0
-1252 -1417 0
-1252 -1418 0
-1252 -1419 0
-1252 -1420 0
-1253 -1261 0
-1253 -1262 0
-1253 -1263 0
-1253 -1265 0
-1253 -1266 0
-1253 -1267 0
-1253 -1268 0
-1253 -1269 0
-1253 -1270 0
-1253 -1411 0
-1253 -1412 0
-1253 -1413 0
-1253 -1414 0
-1253 -1415 0
-1253 -1416 0
-1253 -1418 0
-1253 -1419 0
-1253 -1420 0
-1254 -1262 0
-1254 -1263 0
-1254 -1264 0
-1254 -1265 0
-1254 -1266 0
-1254 -1267 0
-1254 -1268 0
-1254 -1269 0
-1254 -1270 0
-1254 -1411 0
-1254 -1412 0
-1254 -1413 0
-1254 -1414 0
-1254 -1415 0
-1254 -1416 0
-1254 -1417 0
-1254 -1419 0
-1254 -1420 0
-1255 -1261 0
-1255 -1262 0
-1255 -1263 0
-1255 -1264 0
-1255 -1265 0
-1255 -1267 0
-1255 -1268 0
-1255 -1270 0
-1255 -1411 0
-1255 -1412 0
-1255 -1414 0
-1255 -1415 0
-1255 -1416 0
-1255 -1417 0
-1255 -1418 0
-1255 -1420 0
-1256 -1261 0
-1256 -1262 0
-1256 -1263 0
-1256 -1264 0
-1256 -1265 0
-1256 -1266 0
-1256 -1268 0
-1256 -1269 0
-1256 -1270 0
-1256 -1411 0
-1256 -1412 0
-1256 -1413 0
-1256 -1415 0
-1256 -1416 0
-1256 -1417 0
-1256 -1418 0
-1256 -1419 0
-1257 -1261 0
-1257 -1262 0
-1257 -1263 0
-1257 -1264 0
-1257 -1265 0
-1257 -1266 0
-1257 -1267 0
-1257 -1269 0
-1257 -1270 0
-1257 -1412 0
-1257 -1413 0
-1257 -1414 0
-1257 -1415 0
-1257 -1416 0
-1257 -1417 0
-1257 -1418 0
-1257 -1419 0
-1257 -1420 0
-1258 -1261 0
-1258 -1263 0
-1258 -1264 0
-1258 -1266 0
-1258 -1267 0
-1258 -1268 0
-1258 -1269 0
-1258 -1270 0
-1258 -1411 0
-1258 -1413 0
-1258 -1414 0
-1258 -1416 0
-1258 -1417 0
-1258 -1418 0
-1258 -1419 0
-1258 -1420 0
-1259 -1261 0
-1259 -1262 0
-1259 -1263 0
-1259 -1264 0
-1259 -1265 0
-1259 -1266 0
-1259 -1267 0
-1259 -1268 0
-1259 -1269 0
-1259 -1411 0
-1259 -1412 0
-1259 -1413 0
-1259 -1415 0
-1259 -1416 0
-1259 -1417 0
-1259 -1418 0
-1259 -1419 0
-1260 -1262 0
-1260 -1263 0
-1260 -1264 0
-1260 -1265 0
-1260 -1266 0
-1260 -1267 0
-1260 -1268 0
-1260 -1269 0
-1260 -1270 0
-1260 -1412 0
-1260 -1413 0
-1260 -1414 0
-1260 -1415 0
-1260 -1416 0
-1260 -1417 0
-1260 -1418 0
-1260 -1419 0
-1260 -1420 0
-1261 -1271 0
-1261 -1273 0
-1261 -1274 0
-1261 -1276 0
-1261 -1277 0
-1261 -1278 0
-1261 -1279 0
-1261 -1280 0
-1261 -1421 0
-1261 -1423 0
-1261 -1424 0
-1261 -1426 0
-1261 -1427 0
-1261 -1428 0
-1261 -1429 0
-1261 -1430 0
-1262 -1271 0
-1262 -1272 0
-1262 -1274 0
-1262 -1275 0
-1262 -1276 0
-1262 -1277 0
-1262 -1278 0
-1262 -1279 0
-1262 -1280 0
-1262 -1421 0
-1262 -1422 0
-1262 -1423 0
-1262 -1424 0
-1262 -1425 0
-1262 -1427 0
-1262 -1428 0
-1262 -1429 0
-1262 -1430 0
-1263 -1271 0
-1263 -1272 0
-1263 -1273 0
-1263 -1275 0
-1263 -1276 0
-1263 -1277 0
-1263 -1278 0
-1263 -1279 0
-1263 -1280 0
-1263 -1421 0
-1263 -1422 0
-1263 -1423 0
-1263 -1424 0
-1263 -1425 0
-1263 -1426 0
-1263 -1428 0
-1263 -1429 0
-1263 -1430 0
-1264 -1272 0
-1264 -1273 0
-1264 -1274 0
-1264 -1275 0
-1264 -1276 0
-1264 -1277 0
-1264 -1278 0
-1264 -1279 0
-1264 -1280 0
-1264 -1421 0
-1264 -1422 0
-1264 -1423 0
-1264 -1424 0
-1264 -1425 0
-1264 -1426 0
-1264 -1427 0
-1264 -1429 0
-1264 -1430 0
-1265 -1271 0
-1265 -1272 0
-1265 -1273 0
-1265 -1274 0
-1265 -1275 0
-1265 -1277 0
-1265 -1278 0
-1265 -1280 0
-1265 -1421 0
-1265 -1422 0
-1265 -1424 0
-1265 -1425 0
-1265 -1426 0
-1265 -1427 0
-1265 -1428 0
-1265 -1430 0
-1266 -1271 0
-1266 -1272 0
-1266 -1273 0
-1266 -1274 0
-1266 -1275 0
-1266 -1276 0
-1266 -1278 0
-1266 -1279 0
-1266 -1280 0
-1266 -1421 0
-1266 -1422 0
-1266 -1423 0
-1266 -1425 0
-1266 -1426 0
-1266 -1427 0
-1266 -1428 0
-1266 -1429 0
-1267 -1271 0
-1267 -1272 0
-1267 -1273 0
-1267 -1274 0
-1267 -1275 0
-1267 -1276 0
-1267 -1277 0
-1267 -1279 0
-1267 -1280 0
-1267 -1422 0
-1267 -1423 0
-1267 -1424 0
-1267 -1425 0
-1267 -1426 0
-1267 -1427 0
-1267 -1428 0
-1267 -1429 0
-1267 -1430 0
-1268 -1271 0
-1268 -1273 0
-1268 -1274 0
-1268 -1276 0
-1268 -1277 0
-1268 -1278 0
-1268 -1279 0
-1268 -1280 0
-1268 -1421 0
-1268 -1423 0
-1268 -1424 0
-1268 -1426 0
-1268 -1427 0
-1268 -1428 0
-1268 -1429 0
-1268 -1430 0
-1269 -1271 0
-1269 -1272 0
-1269 -1273 0
-1269 -1274 0
-1269 -1275 0
-1269 -1276 0
-1269 -1277 0
-1269 -1278 0
-1269 -1279 0
-1269 -1421 0
-1269 -1422 0
-1269 -1423 0
-1269 -1425 0
-1269 -1426 0
-1269 -1427 0
-1269 -1428 0
-1269 -1429 0
-1270 -1272 0
-1270 -1273 0
-1270 -1274 0
-1270 -1275 0
-1270 -1276 0
-1270 -1277 0
-1270 -1278 0
-1270 -1279 0
-1270 -1280 0
-1270 -1422 0
-1270 -1423 0
-1270 -1424 0
-1270 -1425 0
-1270 -1426 0
-1270 -1427 0
-1270 -1428 0
-1270 -1429 0
-1270 -1430 0
-1271 -1431 0
-1271 -1433 0
-1271 -1434 0
-1271 -1436 0
-1271 -1437 0
-1271 -1438 0
-1271 -1439 0
-1271 -1440 0
-1272 -1431 0
-1272 -1432 0
-1272 -1433 0
-1272 -1434 0
-1272 -1435 0
-1272 -1437 0
-1272 -1438 0
-1272 -1439 0
-1272 -1440 0
-1273 -1431 0
-1273 -1432 0
-1273 -1433 0
-1273 -1434 0
-1273 -1435 0
-1273 -1436 0
-1273 -1438 0
-1273 -1439 0
-1273 -1440 0
-1274 -1431 0
-1274 -1432 0
-1274 -1433 0
-1274 -1434 0
-1274 -1435 0
-1274 -1436 0
-1274 -1437 0
-1274 -1439 0
-1274 -1440 0
-1275 -1431 0
-1275 -1432 0
-1275 -1434 0
-1275 -1435 0
-1275 -1436 0
-1275 -1437 0
-1275 -1438 0
-1275 -1440 0
-1276 -1431 0
-1276 -1432 0
-1276 -1433 0
-1276 -1435 0
-1276 -1436 0
-1276 -1437 0
-1276 -1438 0
-1276 -1439 0
-1277 -1432 0
-1277 -1433 0
-1277 -1434 0
-1277 -1435 0
-1277 -1436 0
-1277 -1437 0
-1277 -1438 0
-1277 -1439 0
-1277 -1440 0
-1278 -1431 0
-1278 -1433 0
-1278 -1434 0
-1278 -1436 0
-1278 -1437 0
-1278 -1438 0
-1278 -1439 0
-1278 -1440 0
-1279 -1431 0
-1279 -1432 0
-1279 -1433 0
-1279 -1435 0
-1279 -1436 0
-1279 -1437 0
-1279 -1438 0
-1279 -1439 0
-1280 -1432 0
-1280 -1433 0
-1280 -1434 0
-1280 -1435 0
-1280 -1436 0
-1280 -1437 0
-1280 -1438 0
-1280 -1439 0
-1280 -1440 0
-1281 -1291 0
-1281 -1293 0
-1281 -1294 0
-1281 -1296 0
-1281 -1297 0
-1281 -1298 0
-1281 -1299 0
-1281 -1300 0
-1281 -1441 0
-1281 -1443 0
-1281 -1444 0
-1281 -1446 0
-1281 -1447 0
-1281 -1448 0
-1281 -1449 0
-1281 -1450 0
-1282 -1291 0
-1282 -1292 0
-1282 -1294 0
-1282 -1295 0
-1282 -1296 0
-1282 -1297 0
-1282 -1298 0
-1282 -1299 0
-1282 -1300 0
-1282 -1441 0
-1282 -1442 0
-1282 -1443 0
-1282 -1444 0
-1282 -1445 0
-1282 -1447 0
-1282 -1448 0
-1282 -1449 0
-1282 -1450 0
-1283 -1291 0
-1283 -1292 0
-1283 -1293 0
-1283 -1295 0
-1283 -1296 0
-1283 -1297 0
-1283 -1298 0
-1283 -1299 0
-1283 -1300 0
-1283 -1441 0
-1283 -1442 0
-1283 -1443 0
-1283 -1444 0
-1283 -1445 0
-1283 -1446 0
-1283 -1448 0
-1283 -1449 0
-1283 -1450 0
-1284 -1292 0
-1284 -1293 0
-1284 -1294 0
-1284 -1295 0
-1284 -1296 0
-1284 -1297 0
-1284 -1298 0
-1284 -1299 0
-1284 -1300 0
-1284 -1441 0
-1284 -1442 0
-1284 -1443 0
-1284 -1444 0
-1284 -1445 0
-1284 -1446 0
-1284 -1447 0
-1284 -1449 0
-1284 -1450 0
-1285 -1291 0
-1285 -1292 0
-1285 -1293 0
-1285 -1294 0
-1285 -1295 0
-1285 -1297 0
-1285 -1298 0
-1285 -1300 0
-1285 -1441 0
-1285 -1442 0
-1285 -1444 0
-1285 -1445 0
-1285 -1446 0
-1285 -1447 0
-1285 -1448 0
-1285 -1450 0
-1286 -1291 0
-1286 -1292 0
-1286 -1293 0
-1286 -1294 0
-1286 -1295 0
-1286 -1296 0
-1286 -1298 0
-1286 -1299 0
-1286 -1300 0
-1286 -1441 0
-1286 -1442 0
-1286 -1443 0
-1286 -1445 0
-1286 -1446 0
-1286 -1447 0
-1286 -1448 0
-1286 -1449 0
-1287 -1291 0
-1287 -1292 0
-1287 -1293 0
-1287 -1294 0
-1287 -1295 0
-1287 -1296 0
-1287 -1297 0
-1287 -1299 0
-1287 -1300 0
-1287 -1442 0
-1287 -1443 0
-1287 -1444 0
-1287 -1445 0
-1287 -1446 0
-1287 -1447 0
-1287 -1448 0
-1287 -1449 0
-1287 -1450 0
-1288 -1291 0
-1288 -1293 0
-1288 -1294 0
-1288 -1296 0
-1288 -1297 0
-1288 -1298 0
-1288 -1299 0
-1288 -1300 0
-1288 -1441 0
-1288 -1443 0
-1288 -1444 0
-1288 -1446 0
-1288 -1447 0
-1288 -1448 0
-1288 -1449 0
-1288 -1450 0
-1289 -1291 0
-1289 -1292 0
-1289 -1293 0
-1289 -1294 0
-1289 -1295 0
-1289 -1296 0
-1289 -1297 0
-1289 -1298 0
-1289 -1299 0
-1289 -1441 0
-1289 -1442 0
-1289 -1443 0
-1289 -1445 0
-1289 -1446 0
-1289 -1447 0
-1289 -1448 0
-1289 -1449 0
-1290 -1292 0
-1290 -1293 0
-1290 -1294 0
-1290 -1295 0
-1290 -1296 0
-1290 -1297 0
-1290 -1298 0
-1290 -1299 0
-1290 -1300 0
-1290 -1442 0
-1290 -1443 0
-1290 -1444 0
-1290 -1445 0
-1290 -1446 0
-1290 -1447 0
-1290 -1448 0
-1290 -1449 0
-1290 -1450 0
-1291 -1301 0
-1291 -1303 0
-1291 -1304 0
-1291 -1306 0
-1291 -1307 0
-1291 -1308 0
-1291 -1309 0
-1291 -1310 0
-1291 -1451 0
-1291 -1453 0
-1291 -1454 0
-1291 -1456 0
-1291 -1457 0
-1291 -1458 0
-1291 -1459 0
-1291 -1460 0
-1292 -1301 0
-1292 -1302 0
-1292 -1304 0
-1292 -1305 0
-1292 -1306 0
-1292 -1307 0
-1292 -1308 0
-1292 -1309 0
-1292 -1310 0
-1292 -1451 0
-1292 -1452 0
-1292 -1453 0
-1292 -1454 0
-1292 -1455 0
-1292 -1457 0
-1292 -1458 0
-1292 -1459 0
-1292 -1460 0
-1293 -1301 0
-1293 -1302 0
-1293 -1303 0
-1293 -1305 0
-1293 -1306 0
-1293 -1307 0
-1293 -1308 0
-1293 -1309 0
-1293 -1310 0
-1293 -1451 0
-1293 -1452 0
-1293 -1453 0
-1293 -1454 0
-1293 -1455 0
-1293 -1456 0
-1293 -1458 0
-1293 -1459 0
-1293 -1460 0
-1294 -1302 0
-1294 -1303 0
-1294 -1304 0
-1294 -1305 0
-1294 -1306 0
-1294 -1307 0
-1294 -1308 0
-1294 -1309 0
-1294 -1310 0
-1294 -1451 0
-1294 -1452 0
-1294 -1453 0
-1294 -1454 0
-1294 -1455 0
-1294 -1456 0
-1294 -1457 0
-1294 -1459 0
-1294 -1460 0
-1295 -1301 0
-1295 -1302 0
-1295 -1303 0
-1295 -1304 0
-1295 -1305 0
-1295 -1307 0
-1295 -1308 0
-1295 -1310 0
-1295 -1451 0
-1295 -1452 0
-1295 -1454 0
-1295 -1455 0
-1295 -1456 0
-1295 -1457 0
-1295 -1458 0
-1295 -1460 0
-1296 -1301 0
-1296 -1302 0
-1296 -1303 0
-1296 -1304 0
-1296 -1305 0
-1296 -1306 0
-1296 -1308 0
-1296 -1309 0
-1296 -1310 0
-1296 -1451 0
-1296 -1452 0
-1296 -1453 0
-1296 -1455 0
-1296 -1456 0
-1296 -1457 0
-1296 -1458 0
-1296 -1459 0
-1297 -1301 0
-1297 -1302 0
-1297 -1303 0
-1297 -1304 0
-1297 -1305 0
-1297 -1306 0
-1297 -1307 0
-1297 -1309 0
-1297 -1310 0
-1297 -1452 0
-1297 -1453 0
-1297 -1454 0
-1297 -1455 0
-1297 -1456 0
-1297 -1457 0
-1297 -1458 0
-1297 -1459 0
-1297 -1460 0
-1298 -1301 0
-1298 -1303 0
-1298 -1304 0
-1298 -1306 0
-1298 -1307 0
-1298 -1308 0
-1298 -1309 0
-1298 -1310 0
-1298 -1451 0
-1298 -1453 0
-1298 -1454 0
-1298 -1456 0
-1298 -1457 0
-1298 -1458 0
-1298 -1459 0
-1298 -1460 0
-1299 -1301 0
-1299 -1302 0
-1299 -1303 0
-1299 -1304 0
-1299 -1305 0
-1299 -1306 0
-1299 -1307 0
-1299 -1308 0
-1299 -1309 0
-1299 -1451 0
-1299 -1452 0
-1299 -1453 0
-1299 -1455 0
-1299 -1456 0
-1299 -1457 0
-1299 -1458 0
-1299 -1459 0
-1300 -1302 0
-1300 -1303 0
-1300 -1304 0
-1300 -1305 0
-1300 -1306 0
-1300 -1307 0
-1300 -1308 0
-1300 -1309 0
-1300 -1310 0
-1300 -1452 0
-1300 -1453 0
-1300 -1454 0
-1300 -1455 0
-1300 -1456 0
-1300 -1457 0
-1300 -1458 0
-1300 -1459 0
-1300 -1460 0
-1301 -1311 0
-1301 -1313 0
-1301 -1314 0
-1301 -1316 0
-1301 -1317 0
-1301 -1318 0
-1301 -1319 0
-1301 -1320 0
-1301 -1461 0
-1301 -1463 0
-1301 -1464 0
-1301 -1466 0
-1301 -1467 0
-1301 -1468 0
-1301 -1469 0
-1301 -1470 0
-1302 -1311 0
-1302 -1312 0
-1302 -1314 0
-1302 -1315 0
-1302 -1316 0
-1302 -1317 0
-1302 -1318 0
-1302 -1319 0
-1302 -1320 0
-1302 -1461 0
-1302 -1462 0
-1302 -1463 0
-1302 -1464 0
-1302 -1465 0
-1302 -1467 0
-1302 -1468 0
-1302 -1469 0
-1302 -1470 0
-1303 -1311 0
-1303 -1312 0
-1303 -1313 0
-1303 -1315 0
-1303 -1316 0
-1303 -1317 0
-1303 -1318 0
-1303 -1319 0
-1303 -1320 0
-1303 -1461 0
-1303 -1462 0
-1303 -1463 0
-1303 -1464 0
-1303 -1465 0
-1303 -1466 0
-1303 -1468 0
-1303 -1469 0
-1303 -1470 0
-1304 -1312 0
-1304 -1313 0
-1304 -1314 0
-1304 -1315 0
-1304 -1316 0
-1304 -1317 0
-1304 -1318 0
-1304 -1319 0
-1304 -1320 0
-1304 -1461 0
-1304 -1462 0
-1304 -1463 0
-1304 -1464 0
-1304 -1465 0
-1304 -1466 0
-1304 -1467 0
-1304 -1469 0
-1304 -1470 0
-1305 -1311 0
-1305 -1312 0
-1305 -1313 0
-1305 -1314 0
-1305 -1315 0
-1305 -1317 0
-1305 -1318 0
-1305 -1320 0
-1305 -1461 0
-1305 -1462 0
-1305 -1464 0
-1305 -1465 0
-1305 -1466 0
-1305 -1467 0
-1305 -1468 0
-1305 -1470 0
-1306 -1311 0
-1306 -1312 0
-1306 -1313 0
-1306 -1314 0
-1306 -1315 0
-1306 -1316 0
-1306 -1318 0
-1306 -1319 0
-1306 -1320 0
-1306 -1461 0
-1306 -1462 0
-1306 -1463 0
-1306 -1465 0
-1306 -1466 0
-1306 -1467 0
-1306 -1468 0
-1306 -1469 0
-1307 -1311 0
-1307 -1312 0
-1307 -1313 0
-1307 -1314 0
-1307 -1315 0
-1307 -1316 0
-1307 -1317 0
-1307 -1319 0
-1307 -1320 0
-1307 -1462 0
-1307 -1463 0
-1307 -1464 0
-1307 -1465 0
-1307 -1466 0
-1307 -1467 0
-1307 -1468 0
-1307 -1469 0
-1307 -1470 0
-1308 -1311 0
-1308 -1313 0
-1308 -1314 0
-1308 -1316 0
-1308 -1317 0
-1308 -1318 0
-1308 -1319 0
-1308 -1320 0
-1308 -1461 0
-1308 -1463 0
-1308 -1464 0
-1308 -1466 0
-1308 -1467 0
-1308 -1468 0
-1308 -1469 0
-1308 -1470 0
-1309 -1311 0
-1309 -1312 0
-1309 -1313 0
-1309 -1314 0
-1309 -1315 0
-1309 -1316 0
-1309 -1317 0
-1309 -1318 0
-1309 -1319 0
-1309 -1461 0
-1309 -1462 0
-1309 -1463 0
-1309 -1465 0
-1309 -1466 0
-1309 -1467 0
-1309 -1468 0
-1309 -1469 0
-1310 -1312 0
-1310 -1313 0
-1310 -1314 0
-1310 -1315 0
-1310 -1316 0
-1310 -1317 0
-1310 -1318 0
-1310 -1319 0
-1310 -1320 0
-1310 -1462 0
-1310 -1463 0
-1310 -1464 0
-1310 -1465 0
-1310 -1466 0
-1310 -1467 0
-1310 -1468 0
-1310 -1469 0
-1310 -1470 0
-1311 -1321 0
-1311 -1323 0
-1311 -1324 0
-1311 -1326 0
-1311 -1327 0
-1311 -1328 0
-1311 -1329 0
-1311 -1330 0
-1311 -1471 0
-1311 -1473 0
-1311 -1474 0
-1311 -1476 0
-1311 -1477 0
-1311 -1478 0
-1311 -1479 0
-1311 -1480 0
-1312 -1321 0
-1312 -1322 0
-1312 -1324 0
-1312 -1325 0
-1312 -1326 0
-1312 -1327 0
-1312 -1328 0
-1312 -1329 0
-1312 -1330 0
-1312 -1471 0
-1312 -1472 0
-1312 -1473 0
-1312 -1474 0
-1312 -1475 0
-1312 -1477 0
-1312 -1478 0
-1312 -1479 0
-1312 -1480 0
-1313 -1321 0
-1313 -1322 0
-1313 -1323 0
-1313 -1325 0
-1313 -1326 0
-1313 -1327 0
-1313 -1328 0
-1313 -1329 0
-1313 -1330 0
-1313 -1471 0
-1313 -1472 0
-1313 -1473 0
-1313 -1474 0
-1313 -1475 0
-1313 -1476 0
-1313 -1478 0
-1313 -1479 0
-1313 -1480 0
-1314 -1322 0
-1314 -1323 0
-1314 -1324 0
-1314 -1325 0
-1314 -1326 0
-1314 -1327 0
-1314 -1328 0
-1314 -1329 0
-1314 -1330 0
-1314 -1471 0
-1314 -1472 0
-1314 -1473 0
-1314 -1474 0
-1314 -1475 0
-1314 -1476 0
-1314 -1477 0
-1314 -1479 0
-1314 -1480 0
-1315 -1321 0
-1315 -1322 0
-1315 -1323 0
-1315 -1324 0
-1315 -1325 0
-1315 -1327 0
-1315 -1328 0
-1315 -1330 0
-1315 -1471 0
-1315 -1472 0
-1315 -1474 0
-1315 -1475 0
-1315 -1476 0
-1315 -1477 0
-1315 -1478 0
-1315 -1480 0
-1316 -1321 0
-1316 -1322 0
-1316 -1323 0
-1316 -1324 0
-1316 -1325 0
-1316 -1326 0
-1316 -1328 0
-1316 -1329 0
-1316 -1330 0
-1316 -1471 0
-1316 -1472 0
-1316 -1473 0
-1316 -1475 0
-1316 -1476 0
-1316 -1477 0
-1316 -1478 0
-1316 -1479 0
-1317 -1321 0
-1317 -1322 0
-1317 -1323 0
-1317 -1324 0
-1317 -1325 0
-1317 -1326 0
-1317 -1327 0
-1317 -1329 0
-1317 -1330 0
-1317 -1472 0
-1317 -1473 0
-1317 -1474 0
-1317 -1475 0
-1317 -1476 0
-1317 -1477 0
-1317 -1478 0
-1317 -1479 0
-1317 -1480 0
-1318 -1321 0
-1318 -1323 0
-1318 -1324 0
-1318 -1326 0
-1318 -1327 0
-1318 -1328 0
-1318 -1329 0
-1318 -1330 0
-1318 -1471 0
-1318 -1473 0
-1318 -1474 0
-1318 -1476 0
-1318 -1477 0
-1318 -1478 0
-1318 -1479 0
-1318 -1480 0
-1319 -1321 0
-1319 -1322 0
-1319 -1323 0
-1319 -1324 0
-1319 -1325 0
-1319 -1326 0
-1319 -1327 0
-1319 -1328 0
-1319 -1329 0
-1319 -1471 0
-1319 -1472 0
-1319 -1473 0
-1319 -1475 0
-1319 -1476 0
-1319 -1477 0
-1319 -1478 0
-1319 -1479 0
-1320 -1322 0
-1320 -1323 0
-1320 -1324 0
-1320 -1325 0
-1320 -1326 0
-1320 -1327 0
-1320 -1328 0
-1320 -1329 0
-1320 -1330 0
-1320 -1472 0
-1320 -1473 0
-1320 -1474 0
-1320 -1475 0
-1320 -1476 0
-1320 -1477 0
-1320 -1478 0
-1320 -1479 0
-1320 -1480 0
-1321 -1331 0
-1321 -1333 0
-1321 -1334 0
-1321 -1336 0
-1321 -1337 0
-1321 -1338 0
-1321 -1339 0
-1321 -1340 0
-1321 -1481 0
-1321 -1483 0
-1321 -1484 0
-1321 -1486 0
-1321 -1487 0
-1321 -1488 0
-1321 -1489 0
-1321 -1490 0
-1322 -1331 0
-1322 -1332 0
-1322 -1334 0
-1322 -1335 0
-1322 -1336 0
-1322 -1337 0
-1322 -1338 0
-1322 -1339 0
-1322 -1340 0
-1322 -1481 0
-1322 -1482 0
-1322 -1483 0
-1322 -1484 0
-1322 -1485 0
-1322 -1487 0
-1322 -1488 0
-1322 -1489 0
-1322 -1490 0
-1323 -1331 0
-1323 -1332 0
-1323 -1333 0
-1323 -1335 0
-1323 -1336 0
-1323 -1337 0
-1323 -1338 0
-1323 -1339 0
-1323 -1340 0
-1323 -1481 0
-1323 -1482 0
-1323 -1483 0
-1323 -1484 0
-1323 -1485 0
-1323 -1486 0
-1323 -1488 0
-1323 -1489 0
-1323 -1490 0
-1324 -1332 0
-1324 -1333 0
-1324 -1334 0
-1324 -1335 0
-1324 -1336 0
-1324 -1337 0
-1324 -1338 0
-1324 -1339 0
-1324 -1340 0
-1324 -1481 0
-1324 -1482 0
-1324 -1483 0
-1324 -1484 0
-1324 -1485 0
-1324 -1486 0
-1324 -1487 0
-1324 -1489 0
-1324 -1490 0
-1325 -1331 0
-1325 -1332 0
-1325 -1333 0
-1325 -1334 0
-1325 -1335 0
-1325 -1337 0
-1325 -1338 0
-1325 -1340 0
-1325 -1481 0
-1325 -1482 0
-1325 -1484 0
-1325 -1485 0
-1325 -1486 0
-1325 -1487 0
-1325 -1488 0
-1325 -1490 0
-1326 -1331 0
-1326 -1332 0
-1326 -1333 0
-1326 -1334 0
-1326 -1335 0
-1326 -1336 0
-1326 -1338 0
-1326 -1339 0
-1326 -1340 0
-1326 -1481 0
-1326 -1482 0
-1326 -1483 0
-1326 -1485 0
-1326 -1486 0
-1326 -1487 0
-1326 -1488 0
-1326 -1489 0
-1327 -1331 0
-1327 -1332 0
-1327 -1333 0
-1327 -1334 0
-1327 -1335 0
-1327 -1336 0
-1327 -1337 0
-1327 -1339 0
-1327 -1340 0
-1327 -1482 0
-1327 -1483 0
-1327 -1484 0
-1327 -1485 0
-1327 -1486 0
-1327 -1487 0
-1327 -1488 0
-1327 -1489 0
-1327 -1490 0
-1328 -1331 0
-1328 -1333 0
-1328 -1334 0
-1328 -1336 0
-1328 -1337 0
-1328 -1338 0
-1328 -1339 0
-1328 -1340 0
-1328 -1481 0
-1328 -1483 0
-1328 -1484 0
-1328 -1486 0
-1328 -1487 0
-1328 -1488 0
-1328 -1489 0
-1328 -1490 0
-1329 -1331 0
-1329 -1332 0
-1329 -1333 0
-1329 -1334 0
-1329 -1335 0
-1329 -1336 0
-1329 -1337 0
-1329 -1338 0
-1329 -1339 0
-1329 -1481 0
-1329 -1482 0
-1329 -1483 0
-1329 -1485 0
-1329 -1486 0
-1329 -1487 0
-1329 -1488 0
-1329 -1489 0
-1330 -1332 0
-1330 -1333 0
-1330 -1334 0
-1330 -1335 0
-1330 -1336 0
-1330 -1337 0
-1330 -1338 0
-1330 -1339 0
-1330 -1340 0
-1330 -1482 0
-1330 -1483 0
-1330 -1484 0
-1330 -1485 0
-1330 -1486 0
-1330 -1487 0
-1330 -1488 0
-1330 -1489 0
-1330 -1490 0
-1331 -1341 0
-1331 -1343 0
-1331 -1344 0
-1331 -1346 0
-1331 -1347 0
-1331 -1348 0
-1331 -1349 0
-1331 -1350 0
-1331 -1491 0
-1331 -1493 0
-1331 -1494 0
-1331 -1496 0
-1331 -1497 0
-1331 -1498 0
-1331 -1499 0
-1331 -1500 0
-1332 -1341 0
-1332 -1342 0
-1332 -1344 0
-1332 -1345 0
-1332 -1346 0
-1332 -1347 0
-1332 -1348 0
-1332 -1349 0
-1332 -1350 0
-1332 -1491 0
-1332 -1492 0
-1332 -1493 0
-1332 -1494 0
-1332 -1495 0
-1332 -1497 0
-1332 -1498 0
-1332 -1499 0
-1332 -1500 0
-1333 -1341 0
-1333 -1342 0
-1333 -1343 0
-1333 -1345 0
-1333 -1346 0
-1333 -1347 0
-1333 -1348 0
-1333 -1349 0
-1333 -1350 0
-1333 -1491 0
-1333 -1492 0
-1333 -1493 0
-1333 -1494 0
-1333 -1495 0
-1333 -1496 0
-1333 -1498 0
-1333 -1499 0
-1333 -1500 0
-1334 -1342 0
-1334 -1343 0
-1334 -1344 0
-1334 -1345 0
-1334 -1346 0
-1334 -1347 0
-1334 -1348 0
-1334 -1349 0
-1334 -1350 0
-1334 -1491 0
-1334 -1492 0
-1334 -1493 0
-1334 -1494 0
-1334 -1495 0
-1334 -1496 0
-1334 -1497 0
-1334 -1499 0
-1334 -1500 0
-1335 -1341 0
-1335 -1342 0
-1335 -1343 0
-1335 -1344 0
-1335 -1345 0
-1335 -1347 0
-1335 -1348 0
-1335 -1350 0
-1335 -1491 0
-1335 -1492 0
-1335 -1494 0
-1335 -1495 0
-1335 -1496 0
-1335 -1497 0
-1335 -1498 0
-1335 -1500 0
-1336 -1341 0
-1336 -1342 0
-1336 -1343 0
-1336 -1344 0
-1336 -1345 0
-1336 -1346 0
-1336 -1348 0
-1336 -1349 0
-1336 -1350 0
-1336 -1491 0
-1336 -1492 0
-1336 -1493 0
-1336 -1495 0
-1336 -1496 0
-1336 -1497 0
-1336 -1498 0
-1336 -1499 0
-1337 -1341 0
-1337 -1342 0
-1337 -1343 0
-1337 -1344 0
-1337 -1345 0
-1337 -1346 0
-1337 -1347 0
-1337 -1349 0
-1337 -1350 0
-1337 -1492 0
-1337 -1493 0
-1337 -1494 0
-1337 -1495 0
-1337 -1496 0
-1337 -1497 0
-1337 -1498 0
-1337 -1499 0
-1337 -1500 0
-1338 -1341 0
-1338 -1343 0
-1338 -1344 0
-1338 -1346 0
-1338 -1347 0
-1338 -1348 0
-1338 -1349 0
-1338 -1350 0
-1338 -1491 0
-1338 -1493 0
-1338 -1494 0
-1338 -1496 0
-1338 -1497 0
-1338 -1498 0
-1338 -1499 0
-1338 -1500 0
-1339 -1341 0
-1339 -1342 0
-1339 -1343 0
-1339 -1344 0
-1339 -1345 0
-1339 -1346 0
-1339 -1347 0
-1339 -1348 0
-1339 -1349 0
-1339 -1491 0
-1339 -1492 0
-1339 -1493 0
-1339 -1495 0
-1339 -1496 0
-1339 -1497 0
-1339 -1498 0
-1339 -1499 0
-1340 -1342 0
-1340 -1343 0
-1340 -1344 0
-1340 -1345 0
-1340 -1346 0
-1340 -1347 0
-1340 -1348 0
-1340 -1349 0
-1340 -1350 0
-1340 -1492 0
-1340 -1493 0
-1340 -1494 0
-1340 -1495 0
-1340 -1496 0
-1340 -1497 0
-1340 -1498 0
-1340 -1499 0
-1340 -1500 0
-1341 -1351 0
-1341 -1353 0
-1341 -1354 0
-1341 -1356 0
-1341 -1357 0
-1341 -1358 0
-1341 -1359 0
-1341 -1360 0
-1341 -1501 0
-1341 -1503 0
-1341 -1504 0
-1341 -1506 0
-1341 -1507 0
-1341 -1508 0
-1341 -1509 0
-1341 -1510 0
-1342 -1351 0
-1342 -1352 0
-1342 -1354 0
-1342 -1355 0
-1342 -1356 0
-1342 -1357 0
-1342 -1358 0
-1342 -1359 0
-1342 -1360 0
-1342 -1501 0
-1342 -1502 0
-1342 -1503 0
-1342 -1504 0
-1342 -1505 0
-1342 -1507 0
-1342 -1508 0
-1342 -1509 0
-1342 -1510 0
-1343 -1351 0
-1343 -1352 0
-1343 -1353 0
-1343 -1355 0
-1343 -1356 0
-1343 -1357 0
-1343 -1358 0
-1343 -1359 0
-1343 -1360 0
-1343 -1501 0
-1343 -1502 0
-1343 -1503 0
-1343 -1504 0
-1343 -1505 0
-1343 -1506 0
-1343 -1508 0
-1343 -1509 0
-1343 -1510 0
-1344 -1352 0
-1344 -1353 0
-1344 -1354 0
-1344 -1355 0
-1344 -1356 0
-1344 -1357 0
-1344 -1358 0
-1344 -1359 0
-1344 -1360 0
-1344 -1501 0
-1344 -1502 0
-1344 -1503 0
-1344 -1504 0
-1344 -1505 0
-1344 -1506 0
-1344 -1507 0
-1344 -1509 0
-1344 -1510 0
-1345 -1351 0
-1345 -1352 0
-1345 -1353 0
-1345 -1354 0
-1345 -1355 0
-1345 -1357 0
-1345 -1358 0
-1345 -1360 0
-1345 -1501 0
-1345 -1502 0
-1345 -1504 0
-1345 -1505 0
-1345 -1506 0
-1345 -1507 0
-1345 -1508 0
-1345 -1510 0
-1346 -1351 0
-1346 -1352 0
-1346 -1353 0
-1346 -1354 0
-1346 -1355 0
-1346 -1356 0
-1346 -1358 0
-1346 -1359 0
-1346 -1360 0
-1346 -1501 0
-1346 -1502 0
-1346 -1503 0
-1346 -1505 0
-1346 -1506 0
-1346 -1507 0
-1346 -1508 0
-1346 -1509 0
-1347 -1351 0
-1347 -1352 0
-1347 -1353 0
-1347 -1354 0
-1347 -1355 0
-1347 -1356 0
-1347 -1357 0
-1347 -1359 0
-1347 -1360 0
-1347 -1502 0
-1347 -1503 0
-1347 -1504 0
-1347 -1505 0
-1347 -1506 0
-1347 -1507 0
-1347 -1508 0
-1347 -1509 0
-1347 -1510 0
-1348 -1351 0
-1348 -1353 0
-1348 -1354 0
-1348 -1356 0
-1348 -1357 0
-1348 -1358 0
-1348 -1359 0
-1348 -1360 0
-1348 -1501 0
-1348 -1503 0
-1348 -1504 0
-1348 -1506 0
-1348 -1507 0
-1348 -1508 0
-1348 -1509 0
-1348 -1510 0
-1349 -1351 0
-1349 -1352 0
-1349 -1353 0
-1349 -1354 0
-1349 -1355 0
-1349 -1356 0
-1349 -1357 0
-1349 -1358 0
-1349 -1359 0
-1349 -1501 0
-1349 -1502 0
-1349 -1503 0
-1349 -1505 0
-1349 -1506 0
-1349 -1507 0
-1349 -1508 0
-1349 -1509 0
-1350 -1352 0
-1350 -1353 0
-1350 -1354 0
-1350 -1355 0
-1350 -1356 0
-1350 -1357 0
-1350 -1358 0
-1350 -1359 0
-1350 -1360 0
-1350 -1502 0
-1350 -1503 0
-1350 -1504 0
-1350 -1505 0
-1350 -1506 0
-1350 -1507 0
-1350 -1508 0
-1350 -1509 0
-1350 -1510 0
-1351 -1361 0
-1351 -1363 0
-1351 -1364 0
-1351 -1366 0
-1351 -1367 0
-1351 -1368 0
-1351 -1369 0
-1351 -1370 0
-1351 -1511 0
-1351 -1513 0
-1351 -1514 0
-1351 -1516 0
-1351 -1517 0
-1351 -1518 0
-1351 -1519 0
-1351 -1520 0
-1352 -1361 0
-1352 -1362 0
-1352 -1364 0
-1352 -1365 0
-1352 -1366 0
-1352 -1367 0
-1352 -1368 0
-1352 -1369 0
-1352 -1370 0
-1352 -1511 0
-1352 -1512 0
-1352 -1513 0
-1352 -1514 0
-1352 -1515 0
-1352 -1517 0
-1352 -1518 0
-1352 -1519 0
-1352 -1520 0
-1353 -1361 0
-1353 -1362 0
-1353 -1363 0
-1353 -1365 0
-1353 -1366 0
-1353 -1367 0
-1353 -1368 0
-1353 -1369 0
-1353 -1370 0
-1353 -1511 0
-1353 -1512 0
-1353 -1513 0
-1353 -1514 0
-1353 -1515 0
-1353 -1516 0
-1353 -1518 0
-1353 -1519 0
-1353 -1520 0
-1354 -1362 0
-1354 -1363 0
-1354 -1364 0
-1354 -1365 0
-1354 -1366 0
-1354 -1367 0
-1354 -1368 0
-1354 -1369 0
-1354 -1370 0
-1354 -1511 0
-1354 -1512 0
-1354 -1513 0
-1354 -1514 0
-1354 -1515 0
-1354 -1516 0
-1354 -1517 0
-1354 -1519 0
-1354 -1520 0
-1355 -1361 0
-1355 -1362 0
-1355 -1363 0
-1355 -1364 0
-1355 -1365 0
-1355 -1367 0
-1355 -1368 0
-1355 -1370 0
-1355 -1511 0
-1355 -1512 0
-1355 -1514 0
-1355 -1515 0
-1355 -1516 0
-1355 -1517 0
-1355 -1518 0
-1355 -1520 0
-1356 -1361 0
-1356 -1362 0
-1356 -1363 0
-1356 -1364 0
-1356 -1365 0
-1356 -1366 0
-1356 -1368 0
-1356 -1369 0
-1356 -1370 0
-1356 -1511 0
-1356 -1512 0
-1356 -1513 0
-1356 -1515 0
-1356 -1516 0
-1356 -1517 0
-1356 -1518 0
-1356 -1519 0
-1357 -1361 0
-1357 -1362 0
-1357 -1363 0
-1357 -1364 0
-1357 -1365 0
-1357 -1366 0
-1357 -1367 0
-1357 -1369 0
-1357 -1370 0
-1357 -1512 0
-1357 -1513 0
-1357 -1514 0
-1357 -1515 0
-1357 -1516 0
-1357 -1517 0
-1357 -1518 0
-1357 -1519 0
-1357 -1520 0
-1358 -1361 0
-1358 -1363 0
-1358 -1364 0
-1358 -1366 0
-1358 -1367 0
-1358 -1368 0
-1358 -1369 0
-1358 -1370 0
-1358 -1511 0
-1358 -1513 0
-1358 -1514 0
-1358 -1516 0
-1358 -1517 0
-1358 -1518 0
-1358 -1519 0
-1358 -1520 0
-1359 -1361 0
-1359 -1362 0
-1359 -1363 0
-1359 -1364 0
-1359 -1365 0
-1359 -1366 0
-1359 -1367 0
-1359 -1368 0
-1359 -1369 0
-1359 -1511 0
-1359 -1512 0
-1359 -1513 0
-1359 -1515 0
-1359 -1516 0
-1359 -1517 0
-1359 -1518 0
-1359 -1519 0
-1360 -1362 0
-1360 -1363 0
-1360 -1364 0
-1360 -1365 0
-1360 -1366 0
-1360 -1367 0
-1360 -1368 0
-1360 -1369 0
-1360 -1370 0
-1360 -1512 0
-1360 -1513 0
-1360 -1514 0
-1360 -1515 0
-1360 -1516 0
-1360 -1517 0
-1360 -1518 0
-1360 -1519 0
-1360 -1520 0
-1361 -1371 0
-1361 -1373 0
-1361 -1374 0
-1361 -1376 0
-1361 -1377 0
-1361 -1378 0
-1361 -1379 0
-1361 -1380 0
-1361 -1521 0
-1361 -1523 0
-1361 -1524 0
-1361 -1526 0
-1361 -1527 0
-1361 -1528 0
-1361 -1529 0
-1361 -1530 0
-1362 -1371 0
-1362 -1372 0
-1362 -1374 0
-1362 -1375 0
-1362 -1376 0
-1362 -1377 0
-1362 -1378 0
-1362 -1379 0
-1362 -1380 0
-1362 -1521 0
-1362 -1522 0
-1362 -1523 0
-1362 -1524 0
-1362 -1525 0
-1362 -1527 0
-1362 -1528 0
-1362 -1529 0
-1362 -1530 0
-1363 -1371 0
-1363 -1372 0
-1363 -1373 0
-1363 -1375 0
-1363 -1376 0
-1363 -1377 0
-1363 -1378 0
-1363 -1379 0
-1363 -1380 0
-1363 -1521 0
-1363 -1522 0
-1363 -1523 0
-1363 -1524 0
-1363 -1525 0
-1363 -1526 0
-1363 -1528 0
-1363 -1529 0
-1363 -1530 0
-1364 -1372 0
-1364 -1373 0
-1364 -1374 0
-1364 -1375 0
-1364 -1376 0
-1364 -1377 0
-1364 -1378 0
-1364 -1379 0
-1364 -1380 0
-1364 -1521 0
-1364 -1522 0
-1364 -1523 0
-1364 -1524 0
-1364 -1525 0
-1364 -1526 0
-1364 -1527 0
-1364 -1529 0
-1364 -1530 0
-1365 -1371 0
-1365 -1372 0
-1365 -1373 0
-1365 -1374 0
-1365 -1375 0
-1365 -1377 0
-1365 -1378 0
-1365 -1380 0
-1365 -1521 0
-1365 -1522 0
-1365 -1524 0
-1365 -1525 0
-1365 -1526 0
-1365 -1527 0
-1365 -1528 0
-1365 -1530 0
-1366 -1371 0
-1366 -1372 0
-1366 -1373 0
-1366 -1374 0
-1366 -1375 0
-1366 -1376 0
-1366 -1378 0
-1366 -1379 0
-1366 -1380 0
-1366 -1521 0
-1366 -1522 0
-1366 -1523 0
-1366 -1525 0
-1366 -1526 0
-1366 -1527 0
-1366 -1528 0
-1366 -1529 0
-1367 -1371 0
-1367 -1372 0
-1367 -1373 0
-1367 -1374 0
-1367 -1375 0
-1367 -1376 0
-1367 -1377 0
-1367 -1379 0
-1367 -1380 0
-1367 -1522 0
-1367 -1523 0
-1367 -1524 0
-1367 -1525 0
-1367 -1526 0
-1367 -1527 0
-1367 -1528 0
-1367 -1529 0
-1367 -1530 0
-1368 -1371 0
-1368 -1373 0
-1368 -1374 0
-1368 -1376 0
-1368 -1377 0
-1368 -1378 0
-1368 -1379 0
-1368 -1380 0
-1368 -1521 0
-1368 -1523 0
-1368 -1524 0
-1368 -1526 0
-1368 -1527 0
-1368 -1528 0
-1368 -1529 0
-1368 -1530 0
-1369 -1371 0
-1369 -1372 0
-1369 -1373 0
-1369 -1374 0
-1369 -1375 0
-1369 -1376 0
-1369 -1377 0
-1369 -1378 0
-1369 -1379 0
-1369 -1521 0
-1369 -1522 0
-1369 -1523 0
-1369 -1525 0
-1369 -1526 0
-1369 -1527 0
-1369 -1528 0
-1369 -1529 0
-1370 -1372 0
-1370 -1373 0
-1370 -1374 0
-1370 -1375 0
-1370 -1376 0
-1370 -1377 0
-1370 -1378 0
-1370 -1379 0
-1370 -1380 0
-1370 -1522 0
-1370 -1523 0
-1370 -1524 0
-1370 -1525 0
-1370 -1526 0
-1370 -1527 0
-1370 -1528 0
-1370 -1529 0
-1370 -1530 0
-1371 -1381 0
-1371 -1383 0
-1371 -1384 0
-1371 -1386 0
-1371 -1387 0
-1371 -1388 0
-1371 -1389 0
-1371 -1390 0
-1371 -1531 0
-1371 -1533 0
-1371 -1534 0
-1371 -1536 0
-1371 -1537 0
-1371 -1538 0
-1371 -1539 0
-1371 -1540 0
-1372 -1381 0
-1372 -1382 0
-1372 -1384 0
-1372 -1385 0
-1372 -1386 0
-1372 -1387 0
-1372 -1388 0
-1372 -1389 0
-1372 -1390 0
-1372 -1531 0
-1372 -1532 0
-1372 -1533 0
-1372 -1534 0
-1372 -1535 0
-1372 -1537 0
-1372 -1538 0
-1372 -1539 0
-1372 -1540 0
-1373 -1381 0
-1373 -1382 0
-1373 -1383 0
-1373 -1385 0
-1373 -1386 0
-1373 -1387 0
-1373 -1388 0
-1373 -1389 0
-1373 -1390 0
-1373 -1531 0
-1373 -1532 0
-1373 -1533 0
-1373 -1534 0
-1373 -1535 0
-1373 -1536 0
-1373 -1538 0
-1373 -1539 0
-1373 -1540 0
-1374 -1382 0
-1374 -1383 0
-1374 -1384 0
-1374 -1385 0
-1374 -1386 0
-1374 -1387 0
-1374 -1388 0
-1374 -1389 0
-1374 -1390 0
-1374 -1531 0
-1374 -1532 0
-1374 -1533 0
-1374 -1534 0
-1374 -1535 0
-1374 -1536 0
-1374 -1537 0
-1374 -1539 0
-1374 -1540 0
-1375 -1381 0
-1375 -1382 0
-1375 -1383 0
-1375 -1384 0
-1375 -1385 0
-1375 -1387 0
-1375 -1388 0
-1375 -1390 0
-1375 -1531 0
-1375 -1532 0
-1375 -1534 0
-1375 -1535 0
-1375 -1536 0
-1375 -1537 0
-1375 -1538 0
-1375 -1540 0
-1376 -1381 0
-1376 -1382 0
-1376 -1383 0
-1376 -1384 0
-1376 -1385 0
-1376 -1386 0
-1376 -1388 0
-1376 -1389 0
-1376 -1390 0
-1376 -1531 0
-1376 -1532 0
-1376 -1533 0
-1376 -1535 0
-1376 -1536 0
-1376 -1537 0
-1376 -1538 0
-1376 -1539 0
-1377 -1381 0
-1377 -1382 0
-1377 -1383 0
-1377 -1384 0
-1377 -1385 0
-1377 -1386 0
-1377 -1387 0
-1377 -1389 0
-1377 -1390 0
-1377 -1532 0
-1377 -1533 0
-1377 -1534 0
-1377 -1535 0
-1377 -1536 0
-1377 -1537 0
-1377 -1538 0
-1377 -1539 0
-1377 -1540 0
-1378 -1381 0
-1378 -1383 0
-1378 -1384 0
-1378 -1386 0
-1378 -1387 0
-1378 -1388 0
-1378 -1389 0
-1378 -1390 0
-1378 -1531 0
-1378 -1533 0
-1378 -1534 0
-1378 -1536 0
-1378 -1537 0
-1378 -1538 0
-1378 -1539 0
-1378 -1540 0
-1379 -1381 0
-1379 -1382 0
-1379 -1383 0
-1379 -1384 0
-1379 -1385 0
-1379 -1386 0
-1379 -1387 0
-1379 -1388 0
-1379 -1389 0
-1379 -1531 0
-1379 -1532 0
-1379 -1533 0
-1379 -1535 0
-1379 -1536 0
-1379 -1537 0
-1379 -1538 0
-1379 -1539 0
-1380 -1382 0
-1380 -1383 0
-1380 -1384 0
-1380 -1385 0
-1380 -1386 0
-1380 -1387 0
-1380 -1388 0
-1380 -1389 0
-1380 -1390 0
-1380 -1532 0
-1380 -1533 0
-1380 -1534 0
-1380 -1535 0
-1380 -1536 0
-1380 -1537 0
-1380 -1538 0
-1380 -1539 0
-1380 -1540 0
-1381 -1391 0
-1381 -1393 0
-1381 -1394 0
-1381 -1396 0
-1381 -1397 0
-1381 -1398 0
-1381 -1399 0
-1381 -1400 0
-1381 -1541 0
-1381 -1543 0
-1381 -1544 0
-1381 -1546 0
-1381 -1547 0
-1381 -1548 0
-1381 -1549 0
-1381 -1550 0
-1382 -1391 0
-1382 -1392 0
-1382 -1394 0
-1382 -1395 0
-1382 -1396 0
-1382 -1397 0
-1382 -1398 0
-1382 -1399 0
-1382 -1400 0
-1382 -1541 0
-1382 -1542 0
-1382 -1543 0
-1382 -1544 0
-1382 -1545 0
-1382 -1547 0
-1382 -1548 0
-1382 -1549 0
-1382 -1550 0
-1383 -1391 0
-1383 -1392 0
-1383 -1393 0
-1383 -1395 0
-1383 -1396 0
-1383 -1397 0
-1383 -1398 0
-1383 -1399 0
-1383 -1400 0
-1383 -1541 0
-1383 -1542 0
-1383 -1543 0
-1383 -1544 0
-1383 -1545 0
-1383 -1546 0
-1383 -1548 0
-1383 -1549 0
-1383 -1550 0
-1384 -1392 0
-1384 -1393 0
-1384 -1394 0
-1384 -1395 0
-1384 -1396 0
-1384 -1397 0
-1384 -1398 0
-1384 -1399 0
-1384 -1400 0
-1384 -1541 0
-1384 -1542 0
-1384 -1543 0
-1384 -1544 0
-1384 -1545 0
-1384 -1546 0
-1384 -1547 0
-1384 -1549 0
-1384 -1550 0
-1385 -1391 0
-1385 -1392 0
-1385 -1393 0
-1385 -1394 0
-1385 -1395 0
-1385 -1397 0
-1385 -1398 0
-1385 -1400 0
-1385 -1541 0
-1385 -1542 0
-1385 -1544 0
-1385 -1545 0
-1385 -1546 0
-1385 -1547 0
-1385 -1548 0
-1385 -1550 0
-1386 -1391 0
-1386 -1392 0
-1386 -1393 0
-1386 -1394 0
-1386 -1395 0
-1386 -1396 0
-1386 -1398 0
-1386 -1399 0
-1386 -1400 0
-1386 -1541 0
-1386 -1542 0
-1386 -1543 0
-1386 -1545 0
-1386 -1546 0
-1386 -1547 0
-1386 -1548 0
-1386 -1549 0
-1387 -1391 0
-1387 -1392 0
-1387 -1393 0
-1387 -1394 0
-1387 -1395 0
-1387 -1396 0
-1387 -1397 0
-1387 -1399 0
-1387 -1400 0
-1387 -1542 0
-1387 -1543 0
-1387 -1544 0
-1387 -1545 0
-1387 -1546 0
-1387 -1547 0
-1387 -1548 0
-1387 -1549 0
-1387 -1550 0
-1388 -1391 0
-1388 -1393 0
-1388 -1394 0
-1388 -1396 0
-1388 -1397 0
-1388 -1398 0
-1388 -1399 0
-1388 -1400 0
-1388 -1541 0
-1388 -1543 0
-1388 -1544 0
-1388 -1546 0
-1388 -1547 0
-1388 -1548 0
-1388 -1549 0
-1388 -1550 0
-1389 -1391 0
-1389 -1392 0
-1389 -1393 0
-1389 -1394 0
-1389 -1395 0
-1389 -1396 0
-1389 -1397 0
-1389 -1398 0
-1389 -1399 0
-1389 -1541 0
-1389 -1542 0
-1389 -1543 0
-1389 -1545 0
-1389 -1546 0
-1389 -1547 0
-1389 -1548 0
-1389 -1549 0
-1390 -1392 0
-1390 -1393 0
-1390 -1394 0
-1390 -1395 0
-1390 -1396 0
-1390 -1397 0
-1390 -1398 0
-1390 -1399 0
-1390 -1400 0
-1390 -1542 0
-1390 -1543 0
-1390 -1544 0
-1390 -1545 0
-1390 -1546 0
-1390 -1547 0
-1390 -1548 0
-1390 -1549 0
-1390 -1550 0
-1391 -1401 0
-1391 -1403 0
-1391 -1404 0
-1391 -1406 0
-1391 -1407 0
-1391 -1408 0
-1391 -1409 0
-1391 -1410 0
-1391 -1551 0
-1391 -1553 0
-1391 -1554 0
-1391 -1556 0
-1391 -1557 0
-1391 -1558 0
-1391 -1559 0
-1391 -1560 0
-1392 -1401 0
-1392 -1402 0
-1392 -1404 0
-1392 -1405 0
-1392 -1406 0
-1392 -1407 0
-1392 -1408 0
-1392 -1409 0
-1392 -1410 0
-1392 -1551 0
-1392 -1552 0
-1392 -1553 0
-1392 -1554 0
-1392 -1555 0
-1392 -1557 0
-1392 -1558 0
-1392 -1559 0
-1392 -1560 0
-1393 -1401 0
-1393 -1402 0
-1393 -1403 0
-1393 -1405 0
-1393 -1406 0
-1393 -1407 0
-1393 -1408 0
-1393 -1409 0
-1393 -1410 0
-1393 -1551 0
-1393 -1552 0
-1393 -1553 0
-1393 -1554 0
-1393 -1555 0
-1393 -1556 0
-1393 -1558 0
-1393 -1559 0
-1393 -1560 0
-1394 -1402 0
-1394 -1403 0
-1394 -1404 0
-1394 -1405 0
-1394 -1406 0
-1394 -1407 0
-1394 -1408 0
-1394 -1409 0
-1394 -1410 0
-1394 -1551 0
-1394 -1552 0
-1394 -1553 0
-1394 -1554 0
-1394 -1555 0
-1394 -1556 0
-1394 -1557 0
-1394 -1559 0
-1394 -1560 0
-1395 -1401 0
-1395 -1402 0
-1395 -1403 0
-1395 -1404 0
-1395 -1405 0
-1395 -1407 0
-1395 -1408 0
-1395 -1410 0
-1395 -1551 0
-1395 -1552 0
-1395 -1554 0
-1395 -1555 0
-1395 -1556 0
-1395 -1557 0
-1395 -1558 0
-1395 -1560 0
-1396 -1401 0
-1396 -1402 0
-1396 -1403 0
-1396 -1404 0
-1396 -1405 0
-1396 -1406 0
-1396 -1408 0
-1396 -1409 0
-1396 -1410 0
-1396 -1551 0
-1396 -1552 0
-1396 -1553 0
-1396 -1555 0
-1396 -1556 0
-1396 -1557 0
-1396 -1558 0
-1396 -1559 0
-1397 -1401 0
-1397 -1402 0
-1397 -1403 0
-1397 -1404 0
-1397 -1405 0
-1397 -1406 0
-1397 -1407 0
-1397 -1409 0
-1397 -1410 0
-1397 -1552 0
-1397 -1553 0
-1397 -1554 0
-1397 -1555 0
-1397 -1556 0
-1397 -1557 0
-1397 -1558 0
-1397 -1559 0
-1397 -1560 0
-1398 -1401 0
-1398 -1403 0
-1398 -1404 0
-1398 -1406 0
-1398 -1407 0
-1398 -1408 0
-1398 -1409 0
-1398 -1410 0
-1398 -1551 0
-1398 -1553 0
-1398 -1554 0
-1398 -1556 0
-1398 -1557 0
-1398 -1558 0
-1398 -1559 0
-1398 -1560 0
-1399 -1401 0
-1399 -1402 0
-1399 -1403 0
-1399 -1404 0
-1399 -1405 0
-1399 -1406 0
-1399 -1407 0
-1399 -1408 0
-1399 -1409 0
-1399 -1551 0
-1399 -1552 0
-1399 -1553 0
-1399 -1555 0
-1399 -1556 0
-1399 -1557 0
-1399 -1558 0
-1399 -1559 0
-1400 -1402 0
-1400 -1403 0
-1400 -1404 0
-1400 -1405 0
-1400 -1406 0
-1400 -1407 0
-1400 -1408 0
-1400 -1409 0
-1400 -1410 0
-1400 -1552 0
-1400 -1553 0
-1400 -1554 0
-1400 -1555 0
-1400 -1556 0
-1400 -1557 0
-1400 -1558 0
-1400 -1559 0
-1400 -1560 0
-1401 -1411 0
-1401 -1413 0
-1401 -1414 0
-1401 -1416 0
-1401 -1417 0
-1401 -1418 0
-1401 -1419 0
-1401 -1420 0
-1401 -1561 0
-1401 -1563 0
-1401 -1564 0
-1401 -1566 0
-1401 -1567 0
-1401 -1568 0
-1401 -1569 0
-1401 -1570 0
-1402 -1411 0
-1402 -1412 0
-1402 -1414 0
-1402 -1415 0
-1402 -1416 0
-1402 -1417 0
-1402 -1418 0
-1402 -1419 0
-1402 -1420 0
-1402 -1561 0
-1402 -1562 0
-1402 -1563 0
-1402 -1564 0
-1402 -1565 0
-1402 -1567 0
-1402 -1568 0
-1402 -1569 0
-1402 -1570 0
-1403 -1411 0
-1403 -1412 0
-1403 -1413 0
-1403 -1415 0
-1403 -1416 0
-1403 -1417 0
-1403 -1418 0
-1403 -1419 0
-1403 -1420 0
-1403 -1561 0
-1403 -1562 0
-1403 -1563 0
-1403 -1564 0
-1403 -1565 0
-1403 -1566 0
-1403 -1568 0
-1403 -1569 0
-1403 -1570 0
-1404 -1412 0
-1404 -1413 0
-1404 -1414 0
-1404 -1415 0
-1404 -1416 0
-1404 -1417 0
-1404 -1418 0
-1404 -1419 0
-1404 -1420 0
-1404 -1561 0
-1404 -1562 0
-1404 -1563 0
-1404 -1564 0
-1404 -1565 0
-1404 -1566 0
-1404 -1567 0
-1404 -1569 0
-1404 -1570 0
-1405 -1411 0
-1405 -1412 0
-1405 -1413 0
-1405 -1414 0
-1405 -1415 0
-1405 -1417 0
-1405 -1418 0
-1405 -1420 0
-1405 -1561 0
-1405 -1562 0
-1405 -1564 0
-1405 -1565 0
-1405 -1566 0
-1405 -1567 0
-1405 -1568 0
-1405 -1570 0
-1406 -1411 0
-1406 -1412 0
-1406 -1413 0
-1406 -1414 0
-1406 -1415 0
-1406 -1416 0
-1406 -1418 0
-1406 -1419 0
-1406 -1420 0
-1406 -1561 0
-1406 -1562 0
-1406 -1563 0
-1406 -1565 0
-1406 -1566 0
-1406 -1567 0
-1406 -1568 0
-1406 -1569 0
-1407 -1411 0
-1407 -1412 0
-1407 -1413 0
-1407 -1414 0
-1407 -1415 0
-1407 -1416 0
-1407 -1417 0
-1407 -1419 0
-1407 -1420 0
-1407 -1562 0
-1407 -1563 0
-1407 -1564 0
-1407 -1565 0
-1407 -1566 0
-1407 -1567 0
-1407 -1568 0
-1407 -1569 0
-1407 -1570 0
-1408 -1411 0
-1408 -1413 0
-1408 -1414 0
-1408 -1416 0
-1408 -1417 0
-1408 -1418 0
-1408 -1419 0
-1408 -1420 0
-1408 -1561 0
-1408 -1563 0
-1408 -1564 0
-1408 -1566 0
-1408 -1567 0
-1408 -1568 0
-1408 -1569 0
-1408 -1570 0
-1409 -1411 0
-1409 -1412 0
-1409 -1413 0
-1409 -1414 0
-1409 -1415 0
-1409 -1416 0
-1409 -1417 0
-1409 -1418 0
-1409 -1419 0
-1409 -1561 0
-1409 -1562 0
-1409 -1563 0
-1409 -1565 0
-1409 -1566 0
-1409 -1567 0
-1409 -1568 0
-1409 -1569 0
-1410 -1412 0
-1410 -1413 0
-1410 -1414 0
-1410 -1415 0
-1410 -1416 0
-1410 -1417 0
-1410 -1418 0
-1410 -1419 0
-1410 -1420 0
-1410 -1562 0
-1410 -1563 0
-1410 -1564 0
-1410 -1565 0
-1410 -1566 0
-1410 -1567 0
-1410 -1568 0
-1410 -1569 0
-1410 -1570 0
-1411 -1421 0
-1411 -1423 0
-1411 -1424 0
-1411 -1426 0
-1411 -1427 0
-1411 -1428 0
-1411 -1429 0
-1411 -1430 0
-1411 -1571 0
-1411 -1573 0
-1411 -1574 0
-1411 -1576 0
-1411 -1577 0
-1411 -1578 0
-1411 -1579 0
-1411 -1580 0
-1412 -1421 0
-1412 -1422 0
-1412 -1424 0
-1412 -1425 0
-1412 -1426 0
-1412 -1427 0
-1412 -1428 0
-1412 -1429 0
-1412 -1430 0
-1412 -1571 0
-1412 -1572 0
-1412 -1573 0
-1412 -1574 0
-1412 -1575 0
-1412 -1577 0
-1412 -1578 0
-1412 -1579 0
-1412 -1580 0
-1413 -1421 0
-1413 -1422 0
-1413 -1423 0
-1413 -1425 0
-1413 -1426 0
-1413 -1427 0
-1413 -1428 0
-1413 -1429 0
-1413 -1430 0
-1413 -1571 0
-1413 -1572 0
-1413 -1573 0
-1413 -1574 0
-1413 -1575 0
-1413 -1576 0
-1413 -1578 0
-1413 -1579 0
-1413 -1580 0
-1414 -1422 0
-1414 -1423 0
-1414 -1424 0
-1414 -1425 0
-1414 -1426 0
-1414 -1427 0
-1414 -1428 0
-1414 -1429 0
-1414 -1430 0
-1414 -1571 0
-1414 -1572 0
-1414 -1573 0
-1414 -1574 0
-1414 -1575 0
-1414 -1576 0
-1414 -1577 0
-1414 -1579 0
-1414 -1580 0
-1415 -1421 0
-1415 -1422 0
-1415 -1423 0
-1415 -1424 0
-1415 -1425 0
-1415 -1427 0
-1415 -1428 0
-1415 -1430 0
-1415 -1571 0
-1415 -1572 0
-1415 -1574 0
-1415 -1575 0
-1415 -1576 0
-1415 -1577 0
-1415 -1578 0
-1415 -1580 0
-1416 -1421 0
-1416 -1422 0
-1416 -1423 0
-1416 -1424 0
-1416 -1425 0
-1416 -1426 0
-1416 -1428 0
-1416 -1429 0
-1416 -1430 0
-1416 -1571 0
-1416 -1572 0
-1416 -1573 0
-1416 -1575 0
-1416 -1576 0
-1416 -1577 0
-1416 -1578 0
-1416 -1579 0
-1417 -1421 0
-1417 -1422 0
-1417 -1423 0
-1417 -1424 0
-1417 -1425 0
-1417 -1426 0
-1417 -1427 0
-1417 -1429 0
-1417 -1430 0
-1417 -1572 0
-1417 -1573 0
-1417 -1574 0
-1417 -1575 0
-1417 -1576 0
-1417 -1577 0
-1417 -1578 0
-1417 -1579 0
-1417 -1580 0
-1418 -1421 0
-1418 -1423 0
-1418 -1424 0
-1418 -1426 0
-1418 -1427 0
-1418 -1428 0
-1418 -1429 0
-1418 -1430 0
-1418 -1571 0
-1418 -1573 0
-1418 -1574 0
-1418 -1576 0
-1418 -1577 0
-1418 -1578 0
-1418 -1579 0
-1418 -1580 0
-1419 -1421 0
-1419 -1422 0
-1419 -1423 0
-1419 -1424 0
-1419 -1425 0
-1419 -1426 0
-1419 -1427 0
-1419 -1428 0
-1419 -1429 0
-1419 -1571 0
-1419 -1572 0
-1419 -1573 0
-1419 -1575 0
-1419 -1576 0
-1419 -1577 0
-1419 -1578 0
-1419 -1579 0
-1420 -1422 0
-1420 -1423 0
-1420 -1424 0
-1420 -1425 0
-1420 -1426 0
-1420 -1427 0
-1420 -1428 0
-1420 -1429 0
-1420 -1430 0
-1420 -1572 0
-1420 -1573 0
-1420 -1574 0
-1420 -1575 0
-1420 -1576 0
-1420 -1577 0
-1420 -1578 0
-1420 -1579 0
-1420 -1580 0
-1421 -1431 0
-1421 -1433 0
-1421 -1434 0
-1421 -1436 0
-1421 -1437 0
-1421 -1438 0
-1421 -1439 0
-1421 -1440 0
-1421 -1581 0
-1421 -1583 0
-1421 -1584 0
-1421 -1586 0
-1421 -1587 0
-1421 -1588 0
-1421 -1589 0
-1421 -1590 0
-1422 -1431 0
-1422 -1432 0
-1422 -1434 0
-1422 -1435 0
-1422 -1436 0
-1422 -1437 0
-1422 -1438 0
-1422 -1439 0
-1422 -1440 0
-1422 -1581 0
-1422 -1582 0
-1422 -1583 0
-1422 -1584 0
-1422 -1585 0
-1422 -1587 0
-1422 -1588 0
-1422 -1589 0
-1422 -1590 0
-1423 -1431 0
-1423 -1432 0
-1423 -1433 0
-1423 -1435 0
-1423 -1436 0
-1423 -1437 0
-1423 -1438 0
-1423 -1439 0
-1423 -1440 0
-1423 -1581 0
-1423 -1582 0
-1423 -1583 0
-1423 -1584 0
-1423 -1585 0
-1423 -1586 0
-1423 -1588 0
-1423 -1589 0
-1423 -1590 0
-1424 -1432 0
-1424 -1433 0
-1424 -1434 0
-1424 -1435 0
-1424 -1436 0
-1424 -1437 0
-1424 -1438 0
-1424 -1439 0
-1424 -1440 0
-1424 -1581 0
-1424 -1582 0
-1424 -1583 0
-1424 -1584 0
-1424 -1585 0
-1424 -1586 0
-1424 -1587 0
-1424 -1589 0
-1424 -1590 0
-1425 -1431 0
-1425 -1432 0
-1425 -1433 0
-1425 -1434 0
-1425 -1435 0
-1425 -1437 0
-1425 -1438 0
-1425 -1440 0
-1425 -1581 0
-1425 -1582 0
-1425 -1584 0
-1425 -1585 0
-1425 -1586 0
-1425 -1587 0
-1425 -1588 0
-1425 -1590 0
-1426 -1431 0
-1426 -1432 0
-1426 -1433 0
-1426 -1434 0
-1426 -1435 0
-1426 -1436 0
-1426 -1438 0
-1426 -1439 0
-1426 -1440 0
-1426 -1581 0
-1426 -1582 0
-1426 -1583 0
-1426 -1585 0
-1426 -1586 0
-1426 -1587 0
-1426 -1588 0
-1426 -1589 0
-1427 -1431 0
-1427 -1432 0
-1427 -1433 0
-1427 -1434 0
-1427 -1435 0
-1427 -1436 0
-1427 -1437 0
-1427 -1439 0
-1427 -1440 0
-1427 -1582 0
-1427 -1583 0
-1427 -1584 0
-1427 -1585 0
-1427 -1586 0
-1427 -1587 0
-1427 -1588 0
-1427 -1589 0
-1427 -1590 0
-1428 -1431 0
-1428 -1433 0
-1428 -1434 0
-1428 -1436 0
-1428 -1437 0
-1428 -1438 0
-1428 -1439 0
-1428 -1440 0
-1428 -1581 0
-1428 -1583 0
-1428 -1584 0
-1428 -1586 0
-1428 -1587 0
-1428 -1588 0
-1428 -1589 0
-1428 -1590 0
-1429 -1431 0
-1429 -1432 0
-1429 -1433 0
-1429 -1434 0
-1429 -1435 0
-1429 -1436 0
-1429 -1437 0
-1429 -1438 0
-1429 -1439 0
-1429 -1581 0
-1429 -1582 0
-1429 -1583 0
-1429 -1585 0
-1429 -1586 0
-1429 -1587 0
-1429 -1588 0
-1429 -1589 0
-1430 -1432 0
-1430 -1433 0
-1430 -1434 0
-1430 -1435 0
-1430 -1436 0
-1430 -1437 0
-1430 -1438 0
-1430 -1439 0
-1430 -1440 0
-1430 -1582 0
-1430 -1583 0
-1430 -1584 0
-1430 -1585 0
-1430 -1586 0
-1430 -1587 0
-1430 -1588 0
-1430 -1589 0
-1430 -1590 0
-1431 -1591 0
-1431 -1593 0
-1431 -1594 0
-1431 -1596 0
-1431 -1597 0
-1431 -1598 0
-1431 -1599 0
-1431 -1600 0
-1432 -1591 0
-1432 -1592 0
-1432 -1593 0
-1432 -1594 0
-1432 -1595 0
-1432 -1597 0
-1432 -1598 0
-1432 -1599 0
-1432 -1600 0
-1433 -1591 0
-1433 -1592 0
-1433 -1593 0
-1433 -1594 0
-1433 -1595 0
-1433 -1596 0
-1433 -1598 0
-1433 -1599 0
-1433 -1600 0
-1434 -1591 0
-1434 -1592 0
-1434 -1593 0
-1434 -1594 0
-1434 -1595 0
-1434 -1596 0
-1434 -1597 0
-1434 -1599 0
-1434 -1600 0
-1435 -1591 0
-1435 -1592 0
-1435 -1594 0
-1435 -1595 0
-1435 -1596 0
-1435 -1597 0
-1435 -1598 0
-1435 -1600 0
-1436 -1591 0
-1436 -1592 0
-1436 -1593 0
-1436 -1595 0
-1436 -1596 0
-1436 -1597 0
-1436 -1598 0
-1436 -1599 0
-1437 -1592 0
-1437 -1593 0
-1437 -1594 0
-1437 -1595 0
-1437 -1596 0
-1437 -1597 0
-1437 -1598 0
-1437 -1599 0
-1437 -1600 0
-1438 -1591 0
-1438 -1593 0
-1438 -1594 0
-1438 -1596 0
-1438 -1597 0
-1438 -1598 0
-1438 -1599 0
-1438 -1600 0
-1439 -1591 0
-1439 -1592 0
-1439 -1593 0
-1439 -1595 0
-1439 -1596 0
-1439 -1597 0
-1439 -1598 0
-1439 -1599 0
-1440 -1592 0
-1440 -1593 0
-1440 -1594 0
-1440 -1595 0
-1440 -1596 0
-1440 -1597 0
-1440 -1598 0
-1440 -1599 0
-1440 -1600 0
-1441 -1451 0
-1441 -1453 0
-1441 -1454 0
-1441 -1456 0
-1441 -1457 0
-1441 -1458 0
-1441 -1459 0
-1441 -1460 0
-1441 -1601 0
-1441 -1603 0
-1441 -1604 0
-1441 -1606 0
-1441 -1607 0
-1441 -1608 0
-1441 -1609 0
-1441 -1610 0
-1442 -1451 0
-1442 -1452 0
-1442 -1454 0
-1442 -1455 0
-1442 -1456 0
-1442 -1457 0
-1442 -1458 0
-1442 -1459 0
-1442 -1460 0
-1442 -1601 0
-1442 -1602 0
-1442 -1603 0
-1442 -1604 0
-1442 -1605 0
-1442 -1607 0
-1442 -1608 0
-1442 -1609 0
-1442 -1610 0
-1443 -1451 0
-1443 -1452 0
-1443 -1453 0
-1443 -1455 0
-1443 -1456 0
-1443 -1457 0
-1443 -1458 0
-1443 -1459 0
-1443 -1460 0
-1443 -1601 0
-1443 -1602 0
-1443 -1603 0
-1443 -1604 0
-1443 -1605 0
-1443 -1606 0
-1443 -1608 0
-1443 -1609 0
-1443 -1610 0
-1444 -1452 0
-1444 -1453 0
-1444 -1454 0
-1444 -1455 0
-1444 -1456 0
-1444 -1457 0
-1444 -1458 0
-1444 -1459 0
-1444 -1460 0
-1444 -1601 0
-1444 -1602 0
-1444 -1603 0
-1444 -1604 0
-1444 -1605 0
-1444 -1606 0
-1444 -1607 0
-1444 -1609 0
-1444 -1610 0
-1445 -1451 0
-1445 -1452 0
-1445 -1453 0
-1445 -1454 0
-1445 -1455 0
-1445 -1457 0
-1445 -1458 0
-1445 -1460 0
-1445 -1601 0
-1445 -1602 0
-1445 -1604 0
-1445 -1605 0
-1445 -1606 0
-1445 -1607 0
-1445 -1608 0
-1445 -1610 0
-1446 -1451 0
-1446 -1452 0
-1446 -1453 0
-1446 -1454 0
-1446 -1455 0
-1446 -1456 0
-1446 -1458 0
-1446 -1459 0
-1446 -1460 0
-1446 -1601 0
-1446 -1602 0
-1446 -1603 0
-1446 -1605 0
-1446 -1606 0
-1446 -1607 0
-1446 -1608 0
-1446 -1609 0
-1447 -1451 0
-1447 -1452 0
-1447 -1453 0
-1447 -1454 0
-1447 -1455 0
-1447 -1456 0
-1447 -1457 0
-1447 -1459 0
-1447 -1460 0
-1447 -1602 0
-1447 -1603 0
-1447 -1604 0
-1447 -1605 0
-1447 -1606 0
-1447 -1607 0
-1447 -1608 0
-1447 -1609 0
-1447 -1610 0
-1448 -1451 0
-1448 -1453 0
-1448 -1454 0
-1448 -1456 0
-1448 -1457 0
-1448 -1458 0
-1448 -1459 0
-1448 -1460 0
-1448 -1601 0
-1448 -1603 0
-1448 -1604 0
-1448 -1606 0
-1448 -1607 0
-1448 -1608 0
-1448 -1609 0
-1448 -1610 0
-1449 -1451 0
-1449 -1452 0
-1449 -1453 0
-1449 -1454 0
-1449 -1455 0
-1449 -1456 0
-1449 -1457 0
-1449 -1458 0
-1449 -1459 0
-1449 -1601 0
-1449 -1602 0
-1449 -1603 0
-1449 -1605 0
-1449 -1606 0
-1449 -1607 0
-1449 -1608 0
-1449 -1609 0
-1450 -1452 0
-1450 -1453 0
-1450 -1454 0
-1450 -1455 0
-1450 -1456 0
-1450 -1457 0
-1450 -1458 0
-1450 -1459 0
-1450 -1460 0
-1450 -1602 0
-1450 -1603 0
-1450 -1604 0
-1450 -1605 0
-1450 -1606 0
-1450 -1607 0
-1450 -1608 0
-1450 -1609 0
-1450 -1610 0
-1451 -1461 0
-1451 -1463 0
-1451 -1464 0
-1451 -1466 0
-1451 -1467 0
-1451 -1468 0
-1451 -1469 0
-1451 -1470 0
-1451 -1611 0
-1451 -1613 0
-1451 -1614 0
-1451 -1616 0
-1451 -1617 0
-1451 -1618 0
-1451 -1619 0
-1451 -1620 0
-1452 -1461 0
-1452 -1462 0
-1452 -1464 0
-1452 -1465 0
-1452 -1466 0
-1452 -1467 0
-1452 -1468 0
-1452 -1469 0
-1452 -1470 0
-1452 -1611 0
-1452 -1612 0
-1452 -1613 0
-1452 -1614 0
-1452 -1615 0
-1452 -1617 0
-1452 -1618 0
-1452 -1619 0
-1452 -1620 0
-1453 -1461 0
-1453 -1462 0
-1453 -1463 0
-1453 -1465 0
-1453 -1466 0
-1453 -1467 0
-1453 -1468 0
-1453 -1469 0
-1453 -1470 0
-1453 -1611 0
-1453 -1612 0
-1453 -1613 0
-1453 -1614 0
-1453 -1615 0
-1453 -1616 0
-1453 -1618 0
-1453 -1619 0
-1453 -1620 0
-1454 -1462 0
-1454 -1463 0
-1454 -1464 0
-1454 -1465 0
-1454 -1466 0
-1454 -1467 0
-1454 -1468 0
-1454 -1469 0
-1454 -1470 0
-1454 -1611 0
-1454 -1612 0
-1454 -1613 0
-1454 -1614 0
-1454 -1615 0
-1454 -1616 0
-1454 -1617 0
-1454 -1619 0
-1454 -1620 0
-1455 -1461 0
-1455 -1462 0
-1455 -1463 0
-1455 -1464 0
-1455 -1465 0
-1455 -1467 0
-1455 -1468 0
-1455 -1470 0
-1455 -1611 0
-1455 -1612 0
-1455 -1614 0
-1455 -1615 0
-1455 -1616 0
-1455 -1617 0
-1455 -1618 0
-1455 -1620 0
-1456 -1461 0
-1456 -1462 0
-1456 -1463 0
-1456 -1464 0
-1456 -1465 0
-1456 -1466 0
-1456 -1468 0
-1456 -1469 0
-1456 -1470 0
-1456 -1611 0
-1456 -1612 0
-1456 -1613 0
-1456 -1615 0
-1456 -1616 0
-1456 -1617 0
-1456 -1618 0
-1456 -1619 0
-1457 -1461 0
-1457 -1462 0
-1457 -1463 0
-1457 -1464 0
-1457 -1465 0
-1457 -1466 0
-1457 -1467 0
-1457 -1469 0
-1457 -1470 0
-1457 -1612 0
-1457 -1613 0
-1457 -1614 0
-1457 -1615 0
-1457 -1616 0
-1457 -1617 0
-1457 -1618 0
-1457 -1619 0
-1457 -1620 0
-1458 -1461 0
-1458 -1463 0
-1458 -1464 0
-1458 -1466 0
-1458 -1467 0
-1458 -1468 0
-1458 -1469 0
-1458 -1470 0
-1458 -1611 0
-1458 -1613 0
-1458 -1614 0
-1458 -1616 0
-1458 -1617 0
-1458 -1618 0
-1458 -1619 0
-1458 -1620 0
-1459 -1461 0
-1459 -1462 0
-1459 -1463 0
-1459 -1464 0
-1459 -1465 0
-1459 -1466 0
-1459 -1467 0
-1459 -1468 0
-1459 -1469 0
-1459 -1611 0
-1459 -1612 0
-1459 -1613 0
-1459 -1615 0
-1459 -1616 0
-1459 -1617 0
-1459 -1618 0
-1459 -1619 0
-1460 -1462 0
-1460 -1463 0
-1460 -1464 0
-1460 -1465 0
-1460 -1466 0
-1460 -1467 0
-1460 -1468 0
-1460 -1469 0
-1460 -1470 0
-1460 -1612 0
-1460 -1613 0
-1460 -1614 0
-1460 -1615 0
-1460 -1616 0
-1460 -1617 0
-1460 -1618 0
-1460 -1619 0
-1460 -1620 0
-1461 -1471 0
-1461 -1473 0
-1461 -1474 0
-1461 -1476 0
-1461 -1477 0
-1461 -1478 0
-1461 -1479 0
-1461 -1480 0
-1461 -1621 0
-1461 -1623 0
-1461 -1624 0
-1461 -1626 0
-1461 -1627 0
-1461 -1628 0
-1461 -1629 0
-1461 -1630 0
-1462 -1471 0
-1462 -1472 0
-1462 -1474 0
-1462 -1475 0
-1462 -1476 0
-1462 -1477 0
-1462 -1478 0
-1462 -1479 0
-1462 -1480 0
-1462 -1621 0
-1462 -1622 0
-1462 -1623 0
-1462 -1624 0
-1462 -1625 0
-1462 -1627 0
-1462 -1628 0
-1462 -1629 0
-1462 -1630 0
-1463 -1471 0
-1463 -1472 0
-1463 -1473 0
-1463 -1475 0
-1463 -1476 0
-1463 -1477 0
-1463 -1478 0
-1463 -1479 0
-1463 -1480 0
-1463 -1621 0
-1463 -1622 0
-1463 -1623 0
-1463 -1624 0
-1463 -1625 0
-1463 -1626 0
-1463 -1628 0
-1463 -1629 0
-1463 -1630 0
-1464 -1472 0
-1464 -1473 0
-1464 -1474 0
-1464 -1475 0
-1464 -1476 0
-1464 -1477 0
-1464 -1478 0
-1464 -1479 0
-1464 -1480 0
-1464 -1621 0
-1464 -1622 0
-1464 -1623 0
-1464 -1624 0
-1464 -1625 0
-1464 -1626 0
-1464 -1627 0
-1464 -1629 0
-1464 -1630 0
-1465 -1471 0
-1465 -1472 0
-1465 -1473 0
-1465 -1474 0
-1465 -1475 0
-1465 -1477 0
-1465 -1478 0
-1465 -1480 0
-1465 -1621 0
-1465 -1622 0
-1465 -1624 0
-1465 -1625 0
-1465 -1626 0
-1465 -1627 0
-1465 -1628 0
-1465 -1630 0
-1466 -1471 0
-1466 -1472 0
-1466 -1473 0
-1466 -1474 0
-1466 -1475 0
-1466 -1476 0
-1466 -1478 0
-1466 -1479 0
-1466 -1480 0
-1466 -1621 0
-1466 -1622 0
-1466 -1623 0
-1466 -1625 0
-1466 -1626 0
-1466 -1627 0
-1466 -1628 0
-1466 -1629 0
-1467 -1471 0
-1467 -1472 0
-1467 -1473 0
-1467 -1474 0
-1467 -1475 0
-1467 -1476 0
-1467 -1477 0
-1467 -1479 0
-1467 -1480 0
-1467 -1622 0
-1467 -1623 0
-1467 -1624 0
-1467 -1625 0
-1467 -1626 0
-1467 -1627 0
-1467 -1628 0
-1467 -1629 0
-1467 -1630 0
-1468 -1471 0
-1468 -1473 0
-1468 -1474 0
-1468 -1476 0
-1468 -1477 0
-1468 -1478 0
-1468 -1479 0
-1468 -1480 0
-1468 -1621 0
-1468 -1623 0
-1468 -1624 0
-1468 -1626 0
-1468 -1627 0
-1468 -1628 0
-1468 -1629 0
-1468 -1630 0
-1469 -1471 0
-1469 -1472 0
-1469 -1473 0
-1469 -1474 0
-1469 -1475 0
-1469 -1476 0
-1469 -1477 0
-1469 -1478 0
-1469 -1479 0
-1469 -1621 0
-1469 -1622 0
-1469 -1623 0
-1469 -1625 0
-1469 -1626 0
-1469 -1627 0
-1469 -1628 0
-1469 -1629 0
-1470 -1472 0
-1470 -1473 0
-1470 -1474 0
-1470 -1475 0
-1470 -1476 0
-1470 -1477 0
-1470 -1478 0
-1470 -1479 0
-1470 -1480 0
-1470 -1622 0
-1470 -1623 0
-1470 -1624 0
-1470 -1625 0
-1470 -1626 0
-1470 -1627 0
-1470 -1628 0
-1470 -1629 0
-1470 -1630 0
-1471 -1481 0
-1471 -1483 0
-1471 -1484 0
-1471 -1486 0
-1471 -1487 0
-1471 -1488 0
-1471 -1489 0
-1471 -1490 0
-1471 -1631 0
-1471 -1633 0
-1471 -1634 0
-1471 -1636 0
-1471 -1637 0
-1471 -1638 0
-1471 -1639 0
-1471 -1640 0
-1472 -1481 0
-1472 -1482 0
-1472 -1484 0
-1472 -1485 0
-1472 -1486 0
-1472 -1487 0
-1472 -1488 0
-1472 -1489 0
-1472 -1490 0
-1472 -1631 0
-1472 -1632 0
-1472 -1633 0
-1472 -1634 0
-1472 -1635 0
-1472 -1637 0
-1472 -1638 0
-1472 -1639 0
-1472 -1640 0
-1473 -1481 0
-1473 -1482 0
-1473 -1483 0
-1473 -1485 0
-1473 -1486 0
-1473 -1487 0
-1473 -1488 0
-1473 -1489 0
-1473 -1490 0
-1473 -1631 0
-1473 -1632 0
-1473 -1633 0
-1473 -1634 0
-1473 -1635 0
-1473 -1636 0
-1473 -1638 0
-1473 -1639 0
-1473 -1640 0
-1474 -1482 0
-1474 -1483 0
-1474 -1484 0
-1474 -1485 0
-1474 -1486 0
-1474 -1487 0
-1474 -1488 0
-1474 -1489 0
-1474 -1490 0
-1474 -1631 0
-1474 -1632 0
-1474 -1633 0
-1474 -1634 0
-1474 -1635 0
-1474 -1636 0
-1474 -1637 0
-1474 -1639 0
-1474 -1640 0
-1475 -1481 0
-1475 -1482 0
-1475 -1483 0
-1475 -1484 0
-1475 -1485 0
-1475 -1487 0
-1475 -1488 0
-1475 -1490 0
-1475 -1631 0
-1475 -1632 0
-1475 -1634 0
-1475 -1635 0
-1475 -1636 0
-1475 -1637 0
-1475 -1638 0
-1475 -1640 0
-1476 -1481 0
-1476 -1482 0
-1476 -1483 0
-1476 -1484 0
-1476 -1485 0
-1476 -1486 0
-1476 -1488 0
-1476 -1489 0
-1476 -1490 0
-1476 -1631 0
-1476 -1632 0
-1476 -1633 0
-1476 -1635 0
-1476 -1636 0
-1476 -1637 0
-1476 -1638 0
-1476 -1639 0
-1477 -1481 0
-1477 -1482 0
-1477 -1483 0
-1477 -1484 0
-1477 -1485 0
-1477 -1486 0
-1477 -1487 0
-1477 -1489 0
-1477 -1490 0
-1477 -1632 0
-1477 -1633 0
-1477 -1634 0
-1477 -1635 0
-1477 -1636 0
-1477 -1637 0
-1477 -1638 0
-1477 -1639 0
-1477 -1640 0
-1478 -1481 0
-1478 -1483 0
-1478 -1484 0
-1478 -1486 0
-1478 -1487 0
-1478 -1488 0
-1478 -1489 0
-1478 -1490 0
-1478 -1631 0
-1478 -1633 0
-1478 -1634 0
-1478 -1636 0
-1478 -1637 0
-1478 -1638 0
-1478 -1639 0
-1478 -1640 0
-1479 -1481 0
-1479 -1482 0
-1479 -1483 0
-1479 -1484 0
-1479 -1485 0
-1479 -1486 0
-1479 -1487 0
-1479 -1488 0
-1479 -1489 0
-1479 -1631 0
-1479 -1632 0
-1479 -1633 0
-1479 -1635 0
-1479 -1636 0
-1479 -1637 0
-1479 -1638 0
-1479 -1639 0
-1480 -1482 0
-1480 -1483 0
-1480 -1484 0
-1480 -1485 0
-1480 -1486 0
-1480 -1487 0
-1480 -1488 0
-1480 -1489 0
-1480 -1490 0
-1480 -1632 0
-1480 -1633 0
-1480 -1634 0
-1480 -1635 0
-1480 -1636 0
-1480 -1637 0
-1480 -1638 0
-1480 -1639 0
-1480 -1640 0
-1481 -1491 0
-1481 -1493 0
-1481 -1494 0
-1481 -1496 0
-1481 -1497 0
-1481 -1498 0
-1481 -1499 0
-1481 -1500 0
-1481 -1641 0
-1481 -1643 0
-1481 -1644 0
-1481 -1646 0
-1481 -1647 0
-1481 -1648 0
-1481 -1649 0
-1481 -1650 0
-1482 -1491 0
-1482 -1492 0
-1482 -1494 0
-1482 -1495 0
-1482 -1496 0
-1482 -1497 0
-1482 -1498 0
-1482 -1499 0
-1482 -1500 0
-1482 -1641 0
-1482 -1642 0
-1482 -1643 0
-1482 -1644 0
-1482 -1645 0
-1482 -1647 0
-1482 -1648 0
-1482 -1649 0
-1482 -1650 0
-1483 -1491 0
-1483 -1492 0
-1483 -1493 0
-1483 -1495 0
-1483 -1496 0
-1483 -1497 0
-1483 -1498 0
-1483 -1499 0
-1483 -1500 0
-1483 -1641 0
-1483 -1642 0
-1483 -1643 0
-1483 -1644 0
-1483 -1645 0
-1483 -1646 0
-1483 -1648 0
-1483 -1649 0
-1483 -1650 0
-1484 -1492 0
-1484 -1493 0
-1484 -1494 0
-1484 -1495 0
-1484 -1496 0
-1484 -1497 0
-1484 -1498 0
-1484 -1499 0
-1484 -1500 0
-1484 -1641 0
-1484 -1642 0
-1484 -1643 0
-1484 -1644 0
-1484 -1645 0
-1484 -1646 0
-1484 -1647 0
-1484 -1649 0
-1484 -1650 0
-1485 -1491 0
-1485 -1492 0
-1485 -1493 0
-1485 -1494 0
-1485 -1495 0
-1485 -1497 0
-1485 -1498 0
-1485 -1500 0
-1485 -1641 0
-1485 -1642 0
-1485 -1644 0
-1485 -1645 0
-1485 -1646 0
-1485 -1647 0
-1485 -1648 0
-1485 -1650 0
-1486 -1491 0
-1486 -1492 0
-1486 -1493 0
-1486 -1494 0
-1486 -1495 0
-1486 -1496 0
-1486 -1498 0
-1486 -1499 0
-1486 -1500 0
-1486 -1641 0
-1486 -1642 0
-1486 -1643 0
-1486 -1645 0
-1486 -1646 0
-1486 -1647 0
-1486 -1648 0
-1486 -1649 0
-1487 -1491 0
-1487 -1492 0
-1487 -1493 0
-1487 -1494 0
-1487 -1495 0
-1487 -1496 0
-1487 -1497 0
-1487 -1499 0
-1487 -1500 0
-1487 -1642 0
-1487 -1643 0
-1487 -1644 0
-1487 -1645 0
-1487 -1646 0
-1487 -1647 0
-1487 -1648 0
-1487 -1649 0
-1487 -1650 0
-1488 -1491 0
-1488 -1493 0
-1488 -1494 0
-1488 -1496 0
-1488 -1497 0
-1488 -1498 0
-1488 -1499 0
-1488 -1500 0
-1488 -1641 0
-1488 -1643 0
-1488 -1644 0
-1488 -1646 0
-1488 -1647 0
-1488 -1648 0
-1488 -1649 0
-1488 -1650 0
-1489 -1491 0
-1489 -1492 0
-1489 -1493 0
-1489 -1494 0
-1489 -1495 0
-1489 -1496 0
-1489 -1497 0
-1489 -1498 0
-1489 -1499 0
-1489 -1641 0
-1489 -1642 0
-1489 -1643 0
-1489 -1645 0
-1489 -1646 0
-1489 -1647 0
-1489 -1648 0
-1489 -1649 0
-1490 -1492 0
-1490 -1493 0
-1490 -1494 0
-1490 -1495 0
-1490 -1496 0
-1490 -1497 0
-1490 -1498 0
-1490 -1499 0
-1490 -1500 0
-1490 -1642 0
-1490 -1643 0
-1490 -1644 0
-1490 -1645 0
-1490 -1646 0
-1490 -1647 0
-1490 -1648 0
-1490 -1649 0
-1490 -1650 0
-1491 -1501 0
-1491 -1503 0
-1491 -1504 0
-1491 -1506 0
-1491 -1507 0
-1491 -1508 0
-1491 -1509 0
-1491 -1510 0
-1491 -1651 0
-1491 -1653 0
-1491 -1654 0
-1491 -1656 0
-1491 -1657 0
-1491 -1658 0
-1491 -1659 0
-1491 -1660 0
-1492 -1501 0
-1492 -1502 0
-1492 -1504 0
-1492 -1505 0
-1492 -1506 0
-1492 -1507 0
-1492 -1508 0
-1492 -1509 0
-1492 -1510 0
-1492 -1651 0
-1492 -1652 0
-1492 -1653 0
-1492 -1654 0
-1492 -1655 0
-1492 -1657 0
-1492 -1658 0
-1492 -1659 0
-1492 -1660 0
-1493 -1501 0
-1493 -1502 0
-1493 -1503 0
-1493 -1505 0
-1493 -1506 0
-1493 -1507 0
-1493 -1508 0
-1493 -1509 0
-1493 -1510 0
-1493 -1651 0
-1493 -1652 0
-1493 -1653 0
-1493 -1654 0
-1493 -1655 0
-1493 -1656 0
-1493 -1658 0
-1493 -1659 0
-1493 -1660 0
-1494 -1502 0
-1494 -1503 0
-1494 -1504 0
-1494 -1505 0
-1494 -1506 0
-1494 -1507 0
-1494 -1508 0
-1494 -1509 0
-1494 -1510 0
-1494 -1651 0
-1494 -1652 0
-1494 -1653 0
-1494 -1654 0
-1494 -1655 0
-1494 -1656 0
-1494 -1657 0
-1494 -1659 0
-1494 -1660 0
-1495 -1501 0
-1495 -1502 0
-1495 -1503 0
-1495 -1504 0
-1495 -1505 0
-1495 -1507 0
-1495 -1508 0
-1495 -1510 0
-1495 -1651 0
-1495 -1652 0
-1495 -1654 0
-1495 -1655 0
-1495 -1656 0
-1495 -1657 0
-1495 -1658 0
-1495 -1660 0
-1496 -1501 0
-1496 -1502 0
-1496 -1503 0
-1496 -1504 0
-1496 -1505 0
-1496 -1506 0
-1496 -1508 0
-1496 -1509 0
-1496 -1510 0
-1496 -1651 0
-1496 -1652 0
-1496 -1653 0
-1496 -1655 0
-1496 -1656 0
-1496 -1657 0
-1496 -1658 0
-1496 -1659 0
-1497 -1501 0
-1497 -1502 0
-1497 -1503 0
-1497 -1504 0
-1497 -1505 0
-1497 -1506 0
-1497 -1507 0
-1497 -1509 0
-1497 -1510 0
-1497 -1652 0
-1497 -1653 0
-1497 -1654 0
-1497 -1655 0
-1497 -1656 0
-1497 -1657 0
-1497 -1658 0
-1497 -1659 0
-1497 -1660 0
-1498 -1501 0
-1498 -1503 0
-1498 -1504 0
-1498 -1506 0
-1498 -1507 0
-1498 -1508 0
-1498 -1509 0
-1498 -1510 0
-1498 -1651 0
-1498 -1653 0
-1498 -1654 0
-1498 -1656 0
-1498 -1657 0
-1498 -1658 0
-1498 -1659 0
-1498 -1660 0
-1499 -1501 0
-1499 -1502 0
-1499 -1503 0
-1499 -1504 0
-1499 -1505 0
-1499 -1506 0
-1499 -1507 0
-1499 -1508 0
-1499 -1509 0
-1499 -1651 0
-1499 -1652 0
-1499 -1653 0
-1499 -1655 0
-1499 -1656 0
-1499 -1657 0
-1499 -1658 0
-1499 -1659 0
-1500 -1502 0
-1500 -1503 0
-1500 -1504 0
-1500 -1505 0
-1500 -1506 0
-1500 -1507 0
-1500 -1508 0
-1500 -1509 0
-1500 -1510 0
-1500 -1652 0
-1500 -1653 0
-1500 -1654 0
-1500 -1655 0
-1500 -1656 0
-1500 -1657 0
-1500 -1658 0
-1500 -1659 0
-1500 -1660 0
-1501 -1511 0
-1501 -1513 0
-1501 -1514 0
-1501 -1516 0
-1501 -1517 0
-1501 -1518 0
-1501 -1519 0
-1501 -1520 0
-1501 -1661 0
-1501 -1663 0
-1501 -1664 0
-1501 -1666 0
-1501 -1667 0
-1501 -1668 0
-1501 -1669 0
-1501 -1670 0
-1502 -1511 0
-1502 -1512 0
-1502 -1514 0
-1502 -1515 0
-1502 -1516 0
-1502 -1517 0
-1502 -1518 0
-1502 -1519 0
-1502 -1520 0
-1502 -1661 0
-1502 -1662 0
-1502 -1663 0
-1502 -1664 0
-1502 -1665 0
-1502 -1667 0
-1502 -1668 0
-1502 -1669 0
-1502 -1670 0
-1503 -1511 0
-1503 -1512 0
-1503 -1513 0
-1503 -1515 0
-1503 -1516 0
-1503 -1517 0
-1503 -1518 0
-1503 -1519 0
-1503 -1520 0
-1503 -1661 0
-1503 -1662 0
-1503 -1663 0
-1503 -1664 0
-1503 -1665 0
-1503 -1666 0
-1503 -1668 0
-1503 -1669 0
-1503 -1670 0
-1504 -1512 0
-1504 -1513 0
-1504 -1514 0
-1504 -1515 0
-1504 -1516 0
-1504 -1517 0
-1504 -1518 0
-1504 -1519 0
-1504 -1520 0
-1504 -1661 0
-1504 -1662 0
-1504 -1663 0
-1504 -1664 0
-1504 -1665 0
-1504 -1666 0
-1504 -1667 0
-1504 -1669 0
-1504 -1670 0
-1505 -1511 0
-1505 -1512 0
-1505 -1513 0
-1505 -1514 0
-1505 -1515 0
-1505 -1517 0
-1505 -1518 0
-1505 -1520 0
-1505 -1661 0
-1505 -1662 0
-1505 -1664 0
-1505 -1665 0
-1505 -1666 0
-1505 -1667 0
-1505 -1668 0
-1505 -1670 0
-1506 -1511 0
-1506 -1512 0
-1506 -1513 0
-1506 -1514 0
-1506 -1515 0
-1506 -1516 0
-1506 -1518 0
-1506 -1519 0
-1506 -1520 0
-1506 -1661 0
-1506 -1662 0
-1506 -1663 0
-1506 -1665 0
-1506 -1666 0
-1506 -1667 0
-1506 -1668 0
-1506 -1669 0
-1507 -1511 0
-1507 -1512 0
-1507 -1513 0
-1507 -1514 0
-1507 -1515 0
-1507 -1516 0
-1507 -1517 0
-1507 -1519 0
-1507 -1520 0
-1507 -1662 0
-1507 -1663 0
-1507 -1664 0
-1507 -1665 0
-1507 -1666 0
-1507 -1667 0
-1507 -1668 0
-1507 -1669 0
-1507 -1670 0
-1508 -1511 0
-1508 -1513 0
-1508 -1514 0
-1508 -1516 0
-1508 -1517 0
-1508 -1518 0
-1508 -1519 0
-1508 -1520 0
-1508 -1661 0
-1508 -1663 0
-1508 -1664 0
-1508 -1666 0
-1508 -1667 0
-1508 -1668 0
-1508 -1669 0
-1508 -1670 0
-1509 -1511 0
-1509 -1512 0
-1509 -1513 0
-1509 -1514 0
-1509 -1515 0
-1509 -1516 0
-1509 -1517 0
-1509 -1518 0
-1509 -1519 0
-1509 -1661 0
-1509 -1662 0
-1509 -1663 0
-1509 -1665 0
-1509 -1666 0
-1509 -1667 0
-1509 -1668 0
-1509 -1669 0
-1510 -1512 0
-1510 -1513 0
-1510 -1514 0
-1510 -1515 0
-1510 -1516 0
-1510 -1517 0
-1510 -1518 0
-1510 -1519 0
-1510 -1520 0
-1510 -1662 0
-1510 -1663 0
-1510 -1664 0
-1510 -1665 0
-1510 -1666 0
-1510 -1667 0
-1510 -1668 0
-1510 -1669 0
-1510 -1670 0
-1511 -1521 0
-1511 -1523 0
-1511 -1524 0
-1511 -1526 0
-1511 -1527 0
-1511 -1528 0
-1511 -1529 0
-1511 -1530 0
-1511 -1671 0
-1511 -1673 0
-1511 -1674 0
-1511 -1676 0
-1511 -1677 0
-1511 -1678 0
-1511 -1679 0
-1511 -1680 0
-1512 -1521 0
-1512 -1522 0
-1512 -1524 0
-1512 -1525 0
-1512 -1526 0
-1512 -1527 0
-1512 -1528 0
-1512 -1529 0
-1512 -1530 0
-1512 -1671 0
-1512 -1672 0
-1512 -1673 0
-1512 -1674 0
-1512 -1675 0
-1512 -1677 0
-1512 -1678 0
-1512 -1679 0
-1512 -1680 0
-1513 -1521 0
-1513 -1522 0
-1513 -1523 0
-1513 -1525 0
-1513 -1526 0
-1513 -1527 0
-1513 -1528 0
-1513 -1529 0
-1513 -1530 0
-1513 -1671 0
-1513 -1672 0
-1513 -1673 0
-1513 -1674 0
-1513 -1675 0
-1513 -1676 0
-1513 -1678 0
-1513 -1679 0
-1513 -1680 0
-1514 -1522 0
-1514 -1523 0
-1514 -1524 0
-1514 -1525 0
-1514 -1526 0
-1514 -1527 0
-1514 -1528 0
-1514 -1529 0
-1514 -1530 0
-1514 -1671 0
-1514 -1672 0
-1514 -1673 0
-1514 -1674 0
-1514 -1675 0
-1514 -1676 0
-1514 -1677 0
-1514 -1679 0
-1514 -1680 0
-1515 -1521 0
-1515 -1522 0
-1515 -1523 0
-1515 -1524 0
-1515 -1525 0
-1515 -1527 0
-1515 -1528 0
-1515 -1530 0
-1515 -1671 0
-1515 -1672 0
-1515 -1674 0
-1515 -1675 0
-1515 -1676 0
-1515 -1677 0
-1515 -1678 0
-1515 -1680 0
-1516 -1521 0
-1516 -1522 0
-1516 -1523 0
-1516 -1524 0
-1516 -1525 0
-1516 -1526 0
-1516 -1528 0
-1516 -1529 0
-1516 -1530 0
-1516 -1671 0
-1516 -1672 0
-1516 -1673 0
-1516 -1675 0
-1516 -1676 0
-1516 -1677 0
-1516 -1678 0
-1516 -1679 0
-1517 -1521 0
-1517 -1522 0
-1517 -1523 0
-1517 -1524 0
-1517 -1525 0
-1517 -1526 0
-1517 -1527 0
-1517 -1529 0
-1517 -1530 0
-1517 -1672 0
-1517 -1673 0
-1517 -1674 0
-1517 -1675 0
-1517 -1676 0
-1517 -1677 0
-1517 -1678 0
-1517 -1679 0
-1517 -1680 0
-1518 -1521 0
-1518 -1523 0
-1518 -1524 0
-1518 -1526 0
-1518 -1527 0
-1518 -1528 0
-1518 -1529 0
-1518 -1530 0
-1518 -1671 0
-1518 -1673 0
-1518 -1674 0
-1518 -1676 0
-1518 -1677 0
-1518 -1678 0
-1518 -1679 0
-1518 -1680 0
-1519 -1521 0
-1519 -1522 0
-1519 -1523 0
-1519 -1524 0
-1519 -1525 0
-1519 -1526 0
-1519 -1527 0
-1519 -1528 0
-1519 -1529 0
-1519 -1671 0
-1519 -1672 0
-1519 -1673 0
-1519 -1675 0
-1519 -1676 0
-1519 -1677 0
-1519 -1678 0
-1519 -1679 0
-1520 -1522 0
-1520 -1523 0
-1520 -1524 0
-1520 -1525 0
-1520 -1526 0
-1520 -1527 0
-1520 -1528 0
-1520 -1529 0
-1520 -1530 0
-1520 -1672 0
-1520 -1673 0
-1520 -1674 0
-1520 -1675 0
-1520 -1676 0
-1520 -1677 0
-1520 -1678 0
-1520 -1679 0
-1520 -1680 0
-1521 -1531 0
-1521 -1533 0
-1521 -1534 0
-1521 -1536 0
-1521 -1537 0
-1521 -1538 0
-1521 -1539 0
-1521 -1540 0
-1521 -1681 0
-1521 -1683 0
-1521 -1684 0
-1521 -1686 0
-1521 -1687 0
-1521 -1688 0
-1521 -1689 0
-1521 -1690 0
-1522 -1531 0
-1522 -1532 0
-1522 -1534 0
-1522 -1535 0
-1522 -1536 0
-1522 -1537 0
-1522 -1538 0
-1522 -1539 0
-1522 -1540 0
-1522 -1681 0
-1522 -1682 0
-1522 -1683 0
-1522 -1684 0
-1522 -1685 0
-1522 -1687 0
-1522 -1688 0
-1522 -1689 0
-1522 -1690 0
-1523 -1531 0
-1523 -1532 0
-1523 -1533 0
-1523 -1535 0
-1523 -1536 0
-1523 -1537 0
-1523 -1538 0
-1523 -1539 0
-1523 -1540 0
-1523 -1681 0
-1523 -1682 0
-1523 -1683 0
-1523 -1684 0
-1523 -1685 0
-1523 -1686 0
-1523 -1688 0
-1523 -1689 0
-1523 -1690 0
-1524 -1532 0
-1524 -1533 0
-1524 -1534 0
-1524 -1535 0
-1524 -1536 0
-1524 -1537 0
-1524 -1538 0
-1524 -1539 0
-1524 -1540 0
-1524 -1681 0
-1524 -1682 0
-1524 -1683 0
-1524 -1684 0
-1524 -1685 0
-1524 -1686 0
-1524 -1687 0
-1524 -1689 0
-1524 -1690 0
-1525 -1531 0
-1525 -1532 0
-1525 -1533 0
-1525 -1534 0
-1525 -1535 0
-1525 -1537 0
-1525 -1538 0
-1525 -1540 0
-1525 -1681 0
-1525 -1682 0
-1525 -1684 0
-1525 -1685 0
-1525 -1686 0
-1525 -1687 0
-1525 -1688 0
-1525 -1690 0
-1526 -1531 0
-1526 -1532 0
-1526 -1533 0
-1526 -1534 0
-1526 -1535 0
-1526 -1536 0
-1526 -1538 0
-1526 -1539 0
-1526 -1540 0
-1526 -1681 0
-1526 -1682 0
-1526 -1683 0
-1526 -1685 0
-1526 -1686 0
-1526 -1687 0
-1526 -1688 0
-1526 -1689 0
-1527 -1531 0
-1527 -1532 0
-1527 -1533 0
-1527 -1534 0
-1527 -1535 0
-1527 -1536 0
-1527 -1537 0
-1527 -1539 0
-1527 -1540 0
-1527 -1682 0
-1527 -1683 0
-1527 -1684 0
-1527 -1685 0
-1527 -1686 0
-1527 -1687 0
-1527 -1688 0
-1527 -1689 0
-1527 -1690 0
-1528 -1531 0
-1528 -1533 0
-1528 -1534 0
-1528 -1536 0
-1528 -1537 0
-1528 -1538 0
-1528 -1539 0
-1528 -1540 0
-1528 -1681 0
-1528 -1683 0
-1528 -1684 0
-1528 -1686 0
-1528 -1687 0
-1528 -1688 0
-1528 -1689 0
-1528 -1690 0
-1529 -1531 0
-1529 -1532 0
-1529 -1533 0
-1529 -1534 0
-1529 -1535 0
-1529 -1536 0
-1529 -1537 0
-1529 -1538 0
-1529 -1539 0
-1529 -1681 0
-1529 -1682 0
-1529 -1683 0
-1529 -1685 0
-1529 -1686 0
-1529 -1687 0
-1529 -1688 0
-1529 -1689 0
-1530 -1532 0
-1530 -1533 0
-1530 -1534 0
-1530 -1535 0
-1530 -1536 0
-1530 -1537 0
-1530 -1538 0
-1530 -1539 0
-1530 -1540 0
-1530 -1682 0
-1530 -1683 0
-1530 -1684 0
-1530 -1685 0
-1530 -1686 0
-1530 -1687 0
-1530 -1688 0
-1530 -1689 0
-1530 -1690 0
-1531 -1541 0
-1531 -1543 0
-1531 -1544 0
-1531 -1546 0
-1531 -1547 0
-1531 -1548 0
-1531 -1549 0
-1531 -1550 0
-1531 -1691 0
-1531 -1693 0
-1531 -1694 0
-1531 -1696 0
-1531 -1697 0
-1531 -1698 0
-1531 -1699 0
-1531 -1700 0
-1532 -1541 0
-1532 -1542 0
-1532 -1544 0
-1532 -1545 0
-1532 -1546 0
-1532 -1547 0
-1532 -1548 0
-1532 -1549 0
-1532 -1550 0
-1532 -1691 0
-1532 -1692 0
-1532 -1693 0
-1532 -1694 0
-1532 -1695 0
-1532 -1697 0
-1532 -1698 0
-1532 -1699 0
-1532 -1700 0
-1533 -1541 0
-1533 -1542 0
-1533 -1543 0
-1533 -1545 0
-1533 -1546 0
-1533 -1547 0
-1533 -1548 0
-1533 -1549 0
-1533 -1550 0
-1533 -1691 0
-1533 -1692 0
-1533 -1693 0
-1533 -1694 0
-1533 -1695 0
-1533 -1696 0
-1533 -1698 0
-1533 -1699 0
-1533 -1700 0
-1534 -1542 0
-1534 -1543 0
-1534 -1544 0
-1534 -1545 0
-1534 -1546 0
-1534 -1547 0
-1534 -1548 0
-1534 -1549 0
-1534 -1550 0
-1534 -1691 0
-1534 -1692 0
-1534 -1693 0
-1534 -1694 0
-1534 -1695 0
-1534 -1696 0
-1534 -1697 0
-1534 -1699 0
-1534 -1700 0
-1535 -1541 0
-1535 -1542 0
-1535 -1543 0
-1535 -1544 0
-1535 -1545 0
-1535 -1547 0
-1535 -1548 0
-1535 -1550 0
-1535 -1691 0
-1535 -1692 0
-1535 -1694 0
-1535 -1695 0
-1535 -1696 0
-1535 -1697 0
-1535 -1698 0
-1535 -1700 0
-1536 -1541 0
-1536 -1542 0
-1536 -1543 0
-1536 -1544 0
-1536 -1545 0
-1536 -1546 0
-1536 -1548 0
-1536 -1549 0
-1536 -1550 0
-1536 -1691 0
-1536 -1692 0
-1536 -1693 0
-1536 -1695 0
-1536 -1696 0
-1536 -1697 0
-1536 -1698 0
-1536 -1699 0
-1537 -1541 0
-1537 -1542 0
-1537 -1543 0
-1537 -1544 0
-1537 -1545 0
-1537 -1546 0
-1537 -1547 0
-1537 -1549 0
-1537 -1550 0
-1537 -1692 0
-1537 -1693 0
-1537 -1694 0
-1537 -1695 0
-1537 -1696 0
-1537 -1697 0
-1537 -1698 0
-1537 -1699 0
-1537 -1700 0
-1538 -1541 0
-1538 -1543 0
-1538 -1544 0
-1538 -1546 0
-1538 -1547 0
-1538 -1548 0
-1538 -1549 0
-1538 -1550 0
-1538 -1691 0
-1538 -1693 0
-1538 -1694 0
-1538 -1696 0
-1538 -1697 0
-1538 -1698 0
-1538 -1699 0
-1538 -1700 0
-1539 -1541 0
-1539 -1542 0
-1539 -1543 0
-1539 -1544 0
-1539 -1545 0
-1539 -1546 0
-1539 -1547 0
-1539 -1548 0
-1539 -1549 0
-1539 -1691 0
-1539 -1692 0
-1539 -1693 0
-1539 -1695 0
-1539 -1696 0
-1539 -1697 0
-1539 -1698 0
-1539 -1699 0
-1540 -1542 0
-1540 -1543 0
-1540 -1544 0
-1540 -1545 0
-1540 -1546 0
-1540 -1547 0
-1540 -1548 0
-1540 -1549 0
-1540 -1550 0
-1540 -1692 0
-1540 -1693 0
-1540 -1694 0
-1540 -1695 0
-1540 -1696 0
-1540 -1697 0
-1540 -1698 0
-1540 -1699 0
-1540 -1700 0
-1541 -1551 0
-1541 -1553 0
-1541 -1554 0
-1541 -1556 0
-1541 -1557 0
-1541 -1558 0
-1541 -1559 0
-1541 -1560 0
-1541 -1701 0
-1541 -1703 0
-1541 -1704 0
-1541 -1706 0
-1541 -1707 0
-1541 -1708 0
-1541 -1709 0
-1541 -1710 0
-1542 -1551 0
-1542 -1552 0
-1542 -1554 0
-1542 -1555 0
-1542 -1556 0
-1542 -1557 0
-1542 -1558 0
-1542 -1559 0
-1542 -1560 0
-1542 -1701 0
-1542 -1702 0
-1542 -1703 0
-1542 -1704 0
-1542 -1705 0
-1542 -1707 0
-1542 -1708 0
-1542 -1709 0
-1542 -1710 0
-1543 -1551 0
-1543 -1552 0
-1543 -1553 0
-1543 -1555 0
-1543 -1556 0
-1543 -1557 0
-1543 -1558 0
-1543 -1559 0
-1543 -1560 0
-1543 -1701 0
-1543 -1702 0
-1543 -1703 0
-1543 -1704 0
-1543 -1705 0
-1543 -1706 0
-1543 -1708 0
-1543 -1709 0
-1543 -1710 0
-1544 -1552 0
-1544 -1553 0
-1544 -1554 0
-1544 -1555 0
-1544 -1556 0
-1544 -1557 0
-1544 -1558 0
-1544 -1559 0
-1544 -1560 0
-1544 -1701 0
-1544 -1702 0
-1544 -1703 0
-1544 -1704 0
-1544 -1705 0
-1544 -1706 0
-1544 -1707 0
-1544 -1709 0
-1544 -1710 0
-1545 -1551 0
-1545 -1552 0
-1545 -1553 0
-1545 -1554 0
-1545 -1555 0
-1545 -1557 0
-1545 -1558 0
-1545 -1560 0
-1545 -1701 0
-1545 -1702 0
-1545 -1704 0
-1545 -1705 0
-1545 -1706 0
-1545 -1707 0
-1545 -1708 0
-1545 -1710 0
-1546 -1551 0
-1546 -1552 0
-1546 -1553 0
-1546 -1554 0
-1546 -1555 0
-1546 -1556 0
-1546 -1558 0
-1546 -1559 0
-1546 -1560 0
-1546 -1701 0
-1546 -1702 0
-1546 -1703 0
-1546 -1705 0
-1546 -1706 0
-1546 -1707 0
-1546 -1708 0
-1546 -1709 0
-1547 -1551 0
-1547 -1552 0
-1547 -1553 0
-1547 -1554 0
-1547 -1555 0
-1547 -1556 0
-1547 -1557 0
-1547 -1559 0
-1547 -1560 0
-1547 -1702 0
-1547 -1703 0
-1547 -1704 0
-1547 -1705 0
-1547 -1706 0
-1547 -1707 0
-1547 -1708 0
-1547 -1709 0
-1547 -1710 0
-1548 -1551 0
-1548 -1553 0
-1548 -1554 0
-1548 -1556 0
-1548 -1557 0
-1548 -1558 0
-1548 -1559 0
-1548 -1560 0
-1548 -1701 0
-1548 -1703 0
-1548 -1704 0
-1548 -1706 0
-1548 -1707 0
-1548 -1708 0
-1548 -1709 0
-1548 -1710 0
-1549 -1551 0
-1549 -1552 0
-1549 -1553 0
-1549 -1554 0
-1549 -1555 0
-1549 -1556 0
-1549 -1557 0
-1549 -1558 0
-1549 -1559 0
-1549 -1701 0
-1549 -1702 0
-1549 -1703 0
-1549 -1705 0
-1549 -1706 0
-1549 -1707 0
-1549 -1708 0
-1549 -1709 0
-1550 -1552 0
-1550 -1553 0
-1550 -1554 0
-1550 -1555 0
-1550 -1556 0
-1550 -1557 0
-1550 -1558 0
-1550 -1559 0
-1550 -1560 0
-1550 -1702 0
-1550 -1703 0
-1550 -1704 0
-1550 -1705 0
-1550 -1706 0
-1550 -1707 0
-1550 -1708 0
-1550 -1709 0
-1550 -1710 0
-1551 -1561 0
-1551 -1563 0
-1551 -1564 0
-1551 -1566 0
-1551 -1567 0
-1551 -1568 0
-1551 -1569 0
-1551 -1570 0
-1551 -1711 0
-1551 -1713 0
-1551 -1714 0
-1551 -1716 0
-1551 -1717 0
-1551 -1718 0
-1551 -1719 0
-1551 -1720 0
-1552 -1561 0
-1552 -1562 0
-1552 -1564 0
-1552 -1565 0
-1552 -1566 0
-1552 -1567 0
-1552 -1568 0
-1552 -1569 0
-1552 -1570 0
-1552 -1711 0
-1552 -1712 0
-1552 -1713 0
-1552 -1714 0
-1552 -1715 0
-1552 -1717 0
-1552 -1718 0
-1552 -1719 0
-1552 -1720 0
-1553 -1561 0
-1553 -1562 0
-1553 -1563 0
-1553 -1565 0
-1553 -1566 0
-1553 -1567 0
-1553 -1568 0
-1553 -1569 0
-1553 -1570 0
-1553 -1711 0
-1553 -1712 0
-1553 -1713 0
-1553 -1714 0
-1553 -1715 0
-1553 -1716 0
-1553 -1718 0
-1553 -1719 0
-1553 -1720 0
-1554 -1562 0
-1554 -1563 0
-1554 -1564 0
-1554 -1565 0
-1554 -1566 0
-1554 -1567 0
-1554 -1568 0
-1554 -1569 0
-1554 -1570 0
-1554 -1711 0
-1554 -1712 0
-1554 -1713 0
-1554 -1714 0
-1554 -1715 0
-1554 -1716 0
-1554 -1717 0
-1554 -1719 0
-1554 -1720 0
-1555 -1561 0
-1555 -1562 0
-1555 -1563 0
-1555 -1564 0
-1555 -1565 0
-1555 -1567 0
-1555 -1568 0
-1555 -1570 0
-1555 -1711 0
-1555 -1712 0
-1555 -1714 0
-1555 -1715 0
-1555 -1716 0
-1555 -1717 0
-1555 -1718 0
-1555 -1720 0
-1556 -1561 0
-1556 -1562 0
-1556 -1563 0
-1556 -1564 0
-1556 -1565 0
-1556 -1566 0
-1556 -1568 0
-1556 -1569 0
-1556 -1570 0
-1556 -1711 0
-1556 -1712 0
-1556 -1713 0
-1556 -1715 0
-1556 -1716 0
-1556 -1717 0
-1556 -1718 0
-1556 -1719 0
-1557 -1561 0
-1557 -1562 0
-1557 -1563 0
-1557 -1564 0
-1557 -1565 0
-1557 -1566 0
-1557 -1567 0
-1557 -1569 0
-1557 -1570 0
-1557 -1712 0
-1557 -1713 0
-1557 -1714 0
-1557 -1715 0
-1557 -1716 0
-1557 -1717 0
-1557 -1718 0
-1557 -1719 0
-1557 -1720 0
-1558 -1561 0
-1558 -1563 0
-1558 -1564 0
-1558 -1566 0
-1558 -1567 0
-1558 -1568 0
-1558 -1569 0
-1558 -1570 0
-1558 -1711 0
-1558 -1713 0
-1558 -1714 0
-1558 -1716 0
-1558 -1717 0
-1558 -1718 0
-1558 -1719 0
-1558 -1720 0
-1559 -1561 0
-1559 -1562 0
-1559 -1563 0
-1559 -1564 0
-1559 -1565 0
-1559 -1566 0
-1559 -1567 0
-1559 -1568 0
-1559 -1569 0
-1559 -1711 0
-1559 -1712 0
-1559 -1713 0
-1559 -1715 0
-1559 -1716 0
-1559 -1717 0
-1559 -1718 0
-1559 -1719 0
-1560 -1562 0
-1560 -1563 0
-1560 -1564 0
-1560 -1565 0
-1560 -1566 0
-1560 -1567 0
-1560 -1568 0
-1560 -1569 0
-1560 -1570 0
-1560 -1712 0
-1560 -1713 0
-1560 -1714 0
-1560 -1715 0
-1560 -1716 0
-1560 -1717 0
-1560 -1718 0
-1560 -1719 0
-1560 -1720 0
-1561 -1571 0
-1561 -1573 0
-1561 -1574 0
-1561 -1576 0
-1561 -1577 0
-1561 -1578 0
-1561 -1579 0
-1561 -1580 0
-1561 -1721 0
-1561 -1723 0
-1561 -1724 0
-1561 -1726 0
-1561 -1727 0
-1561 -1728 0
-1561 -1729 0
-1561 -1730 0
-1562 -1571 0
-1562 -1572 0
-1562 -1574 0
-1562 -1575 0
-1562 -1576 0
-1562 -1577 0
-1562 -1578 0
-1562 -1579 0
-1562 -1580 0
-1562 -1721 0
-1562 -1722 0
-1562 -1723 0
-1562 -1724 0
-1562 -1725 0
-1562 -1727 0
-1562 -1728 0
-1562 -1729 0
-1562 -1730 0
-1563 -1571 0
-1563 -1572 0
-1563 -1573 0
-1563 -1575 0
-1563 -1576 0
-1563 -1577 0
-1563 -1578 0
-1563 -1579 0
-1563 -1580 0
-1563 -1721 0
-1563 -1722 0
-1563 -1723 0
-1563 -1724 0
-1563 -1725 0
-1563 -1726 0
-1563 -1728 0
-1563 -1729 0
-1563 -1730 0
-1564 -1572 0
-1564 -1573 0
-1564 -1574 0
-1564 -1575 0
-1564 -1576 0
-1564 -1577 0
-1564 -1578 0
-1564 -1579 0
-1564 -1580 0
-1564 -1721 0
-1564 -1722 0
-1564 -1723 0
-1564 -1724 0
-1564 -1725 0
-1564 -1726 0
-1564 -1727 0
-1564 -1729 0
-1564 -1730 0
-1565 -1571 0
-1565 -1572 0
-1565 -1573 0
-1565 -1574 0
-1565 -1575 0
-1565 -1577 0
-1565 -1578 0
-1565 -1580 0
-1565 -1721 0
-1565 -1722 0
-1565 -1724 0
-1565 -1725 0
-1565 -1726 0
-1565 -1727 0
-1565 -1728 0
-1565 -1730 0
-1566 -1571 0
-1566 -1572 0
-1566 -1573 0
-1566 -1574 0
-1566 -1575 0
-1566 -1576 0
-1566 -1578 0
-1566 -1579 0
-1566 -1580 0
-1566 -1721 0
-1566 -1722 0
-1566 -1723 0
-1566 -1725 0
-1566 -1726 0
-1566 -1727 0
-1566 -1728 0
-1566 -1729 0
-1567 -1571 0
-1567 -1572 0
-1567 -1573 0
-1567 -1574 0
-1567 -1575 0
-1567 -1576 0
-1567 -1577 0
-1567 -1579 0
-1567 -1580 0
-1567 -1722 0
-1567 -1723 0
-1567 -1724 0
-1567 -1725 0
-1567 -1726 0
-1567 -1727 0
-1567 -1728 0
-1567 -1729 0
-1567 -1730 0
-1568 -1571 0
-1568 -1573 0
-1568 -1574 0
-1568 -1576 0
-1568 -1577 0
-1568 -1578 0
-1568 -1579 0
-1568 -1580 0
-1568 -1721 0
-1568 -1723 0
-1568 -1724 0
-1568 -1726 0
-1568 -1727 0
-1568 -1728 0
-1568 -1729 0
-1568 -1730 0
-1569 -1571 0
-1569 -1572 0
-1569 -1573 0
-1569 -1574 0
-1569 -1575 0
-1569 -1576 0
-1569 -1577 0
-1569 -1578 0
-1569 -1579 0
-1569 -1721 0
-1569 -1722 0
-1569 -1723 0
-1569 -1725 0
-1569 -1726 0
-1569 -1727 0
-1569 -1728 0
-1569 -1729 0
-1570 -1572 0
-1570 -1573 0
-1570 -1574 0
-1570 -1575 0
-1570 -1576 0
-1570 -1577 0
-1570 -1578 0
-1570 -1579 0
-1570 -1580 0
-1570 -1722 0
-1570 -1723 0
-1570 -1724 0
-1570 -1725 0
-1570 -1726 0
-1570 -1727 0
-1570 -1728 0
-1570 -1729 0
-1570 -1730 0
-1571 -1581 0
-1571 -1583 0
-1571 -1584 0
-1571 -1586 0
-1571 -1587 0
-1571 -1588 0
-1571 -1589 0
-1571 -1590 0
-1571 -1731 0
-1571 -1733 0
-1571 -1734 0
-1571 -1736 0
-1571 -1737 0
-1571 -1738 0
-1571 -1739 0
-1571 -1740 0
-1572 -1581 0
-1572 -1582 0
-1572 -1584 0
-1572 -1585 0
-1572 -1586 0
-1572 -1587 0
-1572 -1588 0
-1572 -1589 0
-1572 -1590 0
-1572 -1731 0
-1572 -1732 0
-1572 -1733 0
-1572 -1734 0
-1572 -1735 0
-1572 -1737 0
-1572 -1738 0
-1572 -1739 0
-1572 -1740 0
-1573 -1581 0
-1573 -1582 0
-1573 -1583 0
-1573 -1585 0
-1573 -1586 0
-1573 -1587 0
-1573 -1588 0
-1573 -1589 0
-1573 -1590 0
-1573 -1731 0
-1573 -1732 0
-1573 -1733 0
-1573 -1734 0
-1573 -1735 0
-1573 -1736 0
-1573 -1738 0
-1573 -1739 0
-1573 -1740 0
-1574 -1582 0
-1574 -1583 0
-1574 -1584 0
-1574 -1585 0
-1574 -1586 0
-1574 -1587 0
-1574 -1588 0
-1574 -1589 0
-1574 -1590 0
-1574 -1731 0
-1574 -1732 0
-1574 -1733 0
-1574 -1734 0
-1574 -1735 0
-1574 -1736 0
-1574 -1737 0
-1574 -1739 0
-1574 -1740 0
-1575 -1581 0
-1575 -1582 0
-1575 -1583 0
-1575 -1584 0
-1575 -1585 0
-1575 -1587 0
-1575 -1588 0
-1575 -1590 0
-1575 -1731 0
-1575 -1732 0
-1575 -1734 0
-1575 -1735 0
-1575 -1736 0
-1575 -1737 0
-1575 -1738 0
-1575 -1740 0
-1576 -1581 0
-1576 -1582 0
-1576 -1583 0
-1576 -1584 0
-1576 -1585 0
-1576 -1586 0
-1576 -1588 0
-1576 -1589 0
-1576 -1590 0
-1576 -1731 0
-1576 -1732 0
-1576 -1733 0
-1576 -1735 0
-1576 -1736 0
-1576 -1737 0
-1576 -1738 0
-1576 -1739 0
-1577 -1581 0
-1577 -1582 0
-1577 -1583 0
-1577 -1584 0
-1577 -1585 0
-1577 -1586 0
-1577 -1587 0
-1577 -1589 0
-1577 -1590 0
-1577 -1732 0
-1577 -1733 0
-1577 -1734 0
-1577 -1735 0
-1577 -1736 0
-1577 -1737 0
-1577 -1738 0
-1577 -1739 0
-1577 -1740 0
-1578 -1581 0
-1578 -1583 0
-1578 -1584 0
-1578 -1586 0
-1578 -1587 0
-1578 -1588 0
-1578 -1589 0
-1578 -1590 0
-1578 -1731 0
-1578 -1733 0
-1578 -1734 0
-1578 -1736 0
-1578 -1737 0
-1578 -1738 0
-1578 -1739 0
-1578 -1740 0
-1579 -1581 0
-1579 -1582 0
-1579 -1583 0
-1579 -1584 0
-1579 -1585 0
-1579 -1586 0
-1579 -1587 0
-1579 -1588 0
-1579 -1589 0
-1579 -1731 0
-1579 -1732 0
-1579 -1733 0
-1579 -1735 0
-1579 -1736 0
-1579 -1737 0
-1579 -1738 0
-1579 -1739 0
-1580 -1582 0
-1580 -1583 0
-1580 -1584 0
-1580 -1585 0
-1580 -1586 0
-1580 -1587 0
-1580 -1588 0
-1580 -1589 0
-1580 -1590 0
-1580 -1732 0
-1580 -1733 0
-1580 -1734 0
-1580 -1735 0
-1580 -1736 0
-1580 -1737 0
-1580 -1738 0
-1580 -1739 0
-1580 -1740 0
-1581 -1591 0
-1581 -1593 0
-1581 -1594 0
-1581 -1596 0
-1581 -1597 0
-1581 -1598 0
-1581 -1599 0
-1581 -1600 0
-1581 -1741 0
-1581 -1743 0
-1581 -1744 0
-1581 -1746 0
-1581 -1747 0
-1581 -1748 0
-1581 -1749 0
-1581 -1750 0
-1582 -1591 0
-1582 -1592 0
-1582 -1594 0
-1582 -1595 0
-1582 -1596 0
-1582 -1597 0
-1582 -1598 0
-1582 -1599 0
-1582 -1600 0
-1582 -1741 0
-1582 -1742 0
-1582 -1743 0
-1582 -1744 0
-1582 -1745 0
-1582 -1747 0
-1582 -1748 0
-1582 -1749 0
-1582 -1750 0
-1583 -1591 0
-1583 -1592 0
-1583 -1593 0
-1583 -1595 0
-1583 -1596 0
-1583 -1597 0
-1583 -1598 0
-1583 -1599 0
-1583 -1600 0
-1583 -1741 0
-1583 -1742 0
-1583 -1743 0
-1583 -1744 0
-1583 -1745 0
-1583 -1746 0
-1583 -1748 0
-1583 -1749 0
-1583 -1750 0
-1584 -1592 0
-1584 -1593 0
-1584 -1594 0
-1584 -1595 0
-1584 -1596 0
-1584 -1597 0
-1584 -1598 0
-1584 -1599 0
-1584 -1600 0
-1584 -1741 0
-1584 -1742 0
-1584 -1743 0
-1584 -1744 0
-1584 -1745 0
-1584 -1746 0
-1584 -1747 0
-1584 -1749 0
-1584 -1750 0
-1585 -1591 0
-1585 -1592 0
-1585 -1593 0
-1585 -1594 0
-1585 -1595 0
-1585 -1597 0
-1585 -1598 0
-1585 -1600 0
-1585 -1741 0
-1585 -1742 0
-1585 -1744 0
-1585 -1745 0
-1585 -1746 0
-1585 -1747 0
-1585 -1748 0
-1585 -1750 0
-1586 -1591 0
-1586 -1592 0
-1586 -1593 0
-1586 -1594 0
-1586 -1595 0
-1586 -1596 0
-1586 -1598 0
-1586 -1599 0
-1586 -1600 0
-1586 -1741 0
-1586 -1742 0
-1586 -1743 0
-1586 -1745 0
-1586 -1746 0
-1586 -1747 0
-1586 -1748 0
-1586 -1749 0
-1587 -1591 0
-1587 -1592 0
-1587 -1593 0
-1587 -1594 0
-1587 -1595 0
-1587 -1596 0
-1587 -1597 0
-1587 -1599 0
-1587 -1600 0
-1587 -1742 0
-1587 -1743 0
-1587 -1744 0
-1587 -1745 0
-1587 -1746 0
-1587 -1747 0
-1587 -1748 0
-1587 -1749 0
-1587 -1750 0
-1588 -1591 0
-1588 -1593 0
-1588 -1594 0
-1588 -1596 0
-1588 -1597 0
-1588 -1598 0
-1588 -1599 0
-1588 -1600 0
-1588 -1741 0
-1588 -1743 0
-1588 -1744 0
-1588 -1746 0
-1588 -1747 0
-1588 -1748 0
-1588 -1749 0
-1588 -1750 0
-1589 -1591 0
-1589 -1592 0
-1589 -1593 0
-1589 -1594 0
-1589 -1595 0
-1589 -1596 0
-1589 -1597 0
-1589 -1598 0
-1589 -1599 0
-1589 -1741 0
-1589 -1742 0
-1589 -1743 0
-1589 -1745 0
-1589 -1746 0
-1589 -1747 0
-1589 -1748 0
-1589 -1749 0
-1590 -1592 0
-1590 -1593 0
-1590 -1594 0
-1590 -1595 0
-1590 -1596 0
-1590 -1597 0
-1590 -1598 0
-1590 -1599 0
-1590 -1600 0
-1590 -1742 0
-1590 -1743 0
-1590 -1744 0
-1590 -1745 0
-1590 -1746 0
-1590 -1747 0
-1590 -1748 0
-1590 -1749 0
-1590 -1750 0
-1591 -1751 0
-1591 -1753 0
-1591 -1754 0
-1591 -1756 0
-1591 -1757 0
-1591 -1758 0
-1591 -1759 0
-1591 -1760 0
-1592 -1751 0
-1592 -1752 0
-1592 -1753 0
-1592 -1754 0
-1592 -1755 0
-1592 -1757 0
-1592 -1758 0
-1592 -1759 0
-1592 -1760 0
-1593 -1751 0
-1593 -1752 0
-1593 -1753 0
-1593 -1754 0
-1593 -1755 0
-1593 -1756 0
-1593 -1758 0
-1593 -1759 0
-1593 -1760 0
-1594 -1751 0
-1594 -1752 0
-1594 -1753 0
-1594 -1754 0
-1594 -1755 0
-1594 -1756 0
-1594 -1757 0
-1594 -1759 0
-1594 -1760 0
-1595 -1751 0
-1595 -1752 0
-1595 -1754 0
-1595 -1755 0
-1595 -1756 0
-1595 -1757 0
-1595 -1758 0
-1595 -1760 0
-1596 -1751 0
-1596 -1752 0
-1596 -1753 0
-1596 -1755 0
-1596 -1756 0
-1596 -1757 0
-1596 -1758 0
-1596 -1759 0
-1597 -1752 0
-1597 -1753 0
-1597 -1754 0
-1597 -1755 0
-1597 -1756 0
-1597 -1757 0
-1597 -1758 0
-1597 -1759 0
-1597 -1760 0
-1598 -1751 0
-1598 -1753 0
-1598 -1754 0
-1598 -1756 0
-1598 -1757 0
-1598 -1758 0
-1598 -1759 0
-1598 -1760 0
-1599 -1751 0
-1599 -1752 0
-1599 -1753 0
-1599 -1755 0
-1599 -1756 0
-1599 -1757 0
-1599 -1758 0
-1599 -1759 0
-1600 -1752 0
-1600 -1753 0
-1600 -1754 0
-1600 -1755 0
-1600 -1756 0
-1600 -1757 0
-1600 -1758 0
-1600 -1759 0
-1600 -1760 0
-1601 -1611 0
-1601 -1613 0
-1601 -1614 0
-1601 -1616 0
-1601 -1617 0
-1601 -1618 0
-1601 -1619 0
-1601 -1620 0
-1601 -1761 0
-1601 -1763 0
-1601 -1764 0
-1601 -1766 0
-1601 -1767 0
-1601 -1768 0
-1601 -1769 0
-1601 -1770 0
-1602 -1611 0
-1602 -1612 0
-1602 -1614 0
-1602 -1615 0
-1602 -1616 0
-1602 -1617 0
-1602 -1618 0
-1602 -1619 0
-1602 -1620 0
-1602 -1761 0
-1602 -1762 0
-1602 -1763 0
-1602 -1764 0
-1602 -1765 0
-1602 -1767 0
-1602 -1768 0
-1602 -1769 0
-1602 -1770 0
-1603 -1611 0
-1603 -1612 0
-1603 -1613 0
-1603 -1615 0
-1603 -1616 0
-1603 -1617 0
-1603 -1618 0
-1603 -1619 0
-1603 -1620 0
-1603 -1761 0
-1603 -1762 0
-1603 -1763 0
-1603 -1764 0
-1603 -1765 0
-1603 -1766 0
-1603 -1768 0
-1603 -1769 0
-1603 -1770 0
-1604 -1612 0
-1604 -1613 0
-1604 -1614 0
-1604 -1615 0
-1604 -1616 0
-1604 -1617 0
-1604 -1618 0
-1604 -1619 0
-1604 -1620 0
-1604 -1761 0
-1604 -1762 0
-1604 -1763 0
-1604 -1764 0
-1604 -1765 0
-1604 -1766 0
-1604 -1767 0
-1604 -1769 0
-1604 -1770 0
-1605 -1611 0
-1605 -1612 0
-1605 -1613 0
-1605 -1614 0
-1605 -1615 0
-1605 -1617 0
-1605 -1618 0
-1605 -1620 0
-1605 -1761 0
-1605 -1762 0
-1605 -1764 0
-1605 -1765 0
-1605 -1766 0
-1605 -1767 0
-1605 -1768 0
-1605 -1770 0
-1606 -1611 0
-1606 -1612 0
-1606 -1613 0
-1606 -1614 0
-1606 -1615 0
-1606 -1616 0
-1606 -1618 0
-1606 -1619 0
-1606 -1620 0
-1606 -1761 0
-1606 -1762 0
-1606 -1763 0
-1606 -1765 0
-1606 -1766 0
-1606 -1767 0
-1606 -1768 0
-1606 -1769 0
-1607 -1611 0
-1607 -1612 0
-1607 -1613 0
-1607 -1614 0
-1607 -1615 0
-1607 -1616 0
-1607 -1617 0
-1607 -1619 0
-1607 -1620 0
-1607 -1762 0
-1607 -1763 0
-1607 -1764 0
-1607 -1765 0
-1607 -1766 0
-1607 -1767 0
-1607 -1768 0
-1607 -1769 0
-1607 -1770 0
-1608 -1611 0
-1608 -1613 0
-1608 -1614 0
-1608 -1616 0
-1608 -1617 0
-1608 -1618 0
-1608 -1619 0
-1608 -1620 0
-1608 -1761 0
-1608 -1763 0
-1608 -1764 0
-1608 -1766 0
-1608 -1767 0
-1608 -1768 0
-1608 -1769 0
-1608 -1770 0
-1609 -1611 0
-1609 -1612 0
-1609 -1613 0
-1609 -1614 0
-1609 -1615 0
-1609 -1616 0
-1609 -1617 0
-1609 -1618 0
-1609 -1619 0
-1609 -1761 0
-1609 -1762 0
-1609 -1763 0
-1609 -1765 0
-1609 -1766 0
-1609 -1767 0
-1609 -1768 0
-1609 -1769 0
-1610 -1612 0
-1610 -1613 0
-1610 -1614 0
-1610 -1615 0
-1610 -1616 0
-1610 -1617 0
-1610 -1618 0
-1610 -1619 0
-1610 -1620 0
-1610 -1762 0
-1610 -1763 0
-1610 -1764 0
-1610 -1765 0
-1610 -1766 0
-1610 -1767 0
-1610 -1768 0
-1610 -1769 0
-1610 -1770 0
-1611 -1621 0
-1611 -1623 0
-1611 -1624 0
-1611 -1626 0
-1611 -1627 0
-1611 -1628 0
-1611 -1629 0
-1611 -1630 0
-1611 -1771 0
-1611 -1773 0
-1611 -1774 0
-1611 -1776 0
-1611 -1777 0
-1611 -1778 0
-1611 -1779 0
-1611 -1780 0
-1612 -1621 0
-1612 -1622 0
-1612 -1624 0
-1612 -1625 0
-1612 -1626 0
-1612 -1627 0
-1612 -1628 0
-1612 -1629 0
-1612 -1630 0
-1612 -1771 0
-1612 -1772 0
-1612 -1773 0
-1612 -1774 0
-1612 -1775 0
-1612 -1777 0
-1612 -1778 0
-1612 -1779 0
-1612 -1780 0
-1613 -1621 0
-1613 -1622 0
-1613 -1623 0
-1613 -1625 0
-1613 -1626 0
-1613 -1627 0
-1613 -1628 0
-1613 -1629 0
-1613 -1630 0
-1613 -1771 0
-1613 -1772 0
-1613 -1773 0
-1613 -1774 0
-1613 -1775 0
-1613 -1776 0
-1613 -1778 0
-1613 -1779 0
-1613 -1780 0
-1614 -1622 0
-1614 -1623 0
-1614 -1624 0
-1614 -1625 0
-1614 -1626 0
-1614 -1627 0
-1614 -1628 0
-1614 -1629 0
-1614 -1630 0
-1614 -1771 0
-1614 -1772 0
-1614 -1773 0
-1614 -1774 0
-1614 -1775 0
-1614 -1776 0
-1614 -1777 0
-1614 -1779 0
-1614 -1780 0
-1615 -1621 0
-1615 -1622 0
-1615 -1623 0
-1615 -1624 0
-1615 -1625 0
-1615 -1627 0
-1615 -1628 0
-1615 -1630 0
-1615 -1771 0
-1615 -1772 0
-1615 -1774 0
-1615 -1775 0
-1615 -1776 0
-1615 -1777 0
-1615 -1778 0
-1615 -1780 0
-1616 -1621 0
-1616 -1622 0
-1616 -1623 0
-1616 -1624 0
-1616 -1625 0
-1616 -1626 0
-1616 -1628 0
-1616 -1629 0
-1616 -1630 0
-1616 -1771 0
-1616 -1772 0
-1616 -1773 0
-1616 -1775 0
-1616 -1776 0
-1616 -1777 0
-1616 -1778 0
-1616 -1779 0
-1617 -1621 0
-1617 -1622 0
-1617 -1623 0
-1617 -1624 0
-1617 -1625 0
-1617 -1626 0
-1617 -1627 0
-1617 -1629 0
-1617 -1630 0
-1617 -1772 0
-1617 -1773 0
-1617 -1774 0
-1617 -1775 0
-1617 -1776 0
-1617 -1777 0
-1617 -1778 0
-1617 -1779 0
-1617 -1780 0
-1618 -1621 0
-1618 -1623 0
-1618 -1624 0
-1618 -1626 0
-1618 -1627 0
-1618 -1628 0
-1618 -1629 0
-1618 -1630 0
-1618 -1771 0
-1618 -1773 0
-1618 -1774 0
-1618 -1776 0
-1618 -1777 0
-1618 -1778 0
-1618 -1779 0
-1618 -1780 0
-1619 -1621 0
-1619 -1622 0
-1619 -1623 0
-1619 -1624 0
-1619 -1625 0
-1619 -1626 0
-1619 -1627 0
-1619 -1628 0
-1619 -1629 0
-1619 -1771 0
-1619 -1772 0
-1619 -1773 0
-1619 -1775 0
-1619 -1776 0
-1619 -1777 0
-1619 -1778 0
-1619 -1779 0
-1620 -1622 0
-1620 -1623 0
-1620 -1624 0
-1620 -1625 0
-1620 -1626 0
-1620 -1627 0
-1620 -1628 0
-1620 -1629 0
-1620 -1630 0
-1620 -1772 0
-1620 -1773 0
-1620 -1774 0
-1620 -1775 0
-1620 -1776 0
-1620 -1777 0
-1620 -1778 0
-1620 -1779 0
-1620 -1780 0
-1621 -1631 0
-1621 -1633 0
-1621 -1634 0
-1621 -1636 0
-1621 -1637 0
-1621 -1638 0
-1621 -1639 0
-1621 -1640 0
-1621 -1781 0
-1621 -1783 0
-1621 -1784 0
-1621 -1786 0
-1621 -1787 0
-1621 -1788 0
-1621 -1789 0
-1621 -1790 0
-1622 -1631 0
-1622 -1632 0
-1622 -1634 0
-1622 -1635 0
-1622 -1636 0
-1622 -1637 0
-1622 -1638 0
-1622 -1639 0
-1622 -1640 0
-1622 -1781 0
-1622 -1782 0
-1622 -1783 0
-1622 -1784 0
-1622 -1785 0
-1622 -1787 0
-1622 -1788 0
-1622 -1789 0
-1622 -1790 0
-1623 -1631 0
-1623 -1632 0
-1623 -1633 0
-1623 -1635 0
-1623 -1636 0
-1623 -1637 0
-1623 -1638 0
-1623 -1639 0
-1623 -1640 0
-1623 -1781 0
-1623 -1782 0
-1623 -1783 0
-1623 -1784 0
-1623 -1785 0
-1623 -1786 0
-1623 -1788 0
-1623 -1789 0
-1623 -1790 0
-1624 -1632 0
-1624 -1633 0
-1624 -1634 0
-1624 -1635 0
-1624 -1636 0
-1624 -1637 0
-1624 -1638 0
-1624 -1639 0
-1624 -1640 0
-1624 -1781 0
-1624 -1782 0
-1624 -1783 0
-1624 -1784 0
-1624 -1785 0
-1624 -1786 0
-1624 -1787 0
-1624 -1789 0
-1624 -1790 0
-1625 -1631 0
-1625 -1632 0
-1625 -1633 0
-1625 -1634 0
-1625 -1635 0
-1625 -1637 0
-1625 -1638 0
-1625 -1640 0
-1625 -1781 0
-1625 -1782 0
-1625 -1784 0
-1625 -1785 0
-1625 -1786 0
-1625 -1787 0
-1625 -1788 0
-1625 -1790 0
-1626 -1631 0
-1626 -1632 0
-1626 -1633 0
-1626 -1634 0
-1626 -1635 0
-1626 -1636 0
-1626 -1638 0
-1626 -1639 0
-1626 -1640 0
-1626 -1781 0
-1626 -1782 0
-1626 -1783 0
-1626 -1785 0
-1626 -1786 0
-1626 -1787 0
-1626 -1788 0
-1626 -1789 0
-1627 -1631 0
-1627 -1632 0
-1627 -1633 0
-1627 -1634 0
-1627 -1635 0
-1627 -1636 0
-1627 -1637 0
-1627 -1639 0
-1627 -1640 0
-1627 -1782 0
-1627 -1783 0
-1627 -1784 0
-1627 -1785 0
-1627 -1786 0
-1627 -1787 0
-1627 -1788 0
-1627 -1789 0
-1627 -1790 0
-1628 -1631 0
-1628 -1633 0
-1628 -1634 0
-1628 -1636 0
-1628 -1637 0
-1628 -1638 0
-1628 -1639 0
-1628 -1640 0
-1628 -1781 0
-1628 -1783 0
-1628 -1784 0
-1628 -1786 0
-1628 -1787 0
-1628 -1788 0
-1628 -1789 0
-1628 -1790 0
-1629 -1631 0
-1629 -1632 0
-1629 -1633 0
-1629 -1634 0
-1629 -1635 0
-1629 -1636 0
-1629 -1637 0
-1629 -1638 0
-1629 -1639 0
-1629 -1781 0
-1629 -1782 0
-1629 -1783 0
-1629 -1785 0
-1629 -1786 0
-1629 -1787 0
-1629 -1788 0
-1629 -1789 0
-1630 -1632 0
-1630 -1633 0
-1630 -1634 0
-1630 -1635 0
-1630 -1636 0
-1630 -1637 0
-1630 -1638 0
-1630 -1639 0
-1630 -1640 0
-1630 -1782 0
-1630 -1783 0
-1630 -1784 0
-1630 -1785 0
-1630 -1786 0
-1630 -1787 0
-1630 -1788 0
-1630 -1789 0
-1630 -1790 0
-1631 -1641 0
-1631 -1643 0
-1631 -1644 0
-1631 -1646 0
-1631 -1647 0
-1631 -1648 0
-1631 -1649 0
-1631 -1650 0
-1631 -1791 0
-1631 -1793 0
-1631 -1794 0
-1631 -1796 0
-1631 -1797 0
-1631 -1798 0
-1631 -1799 0
-1631 -1800 0
-1632 -1641 0
-1632 -1642 0
-1632 -1644 0
-1632 -1645 0
-1632 -1646 0
-1632 -1647 0
-1632 -1648 0
-1632 -1649 0
-1632 -1650 0
-1632 -1791 0
-1632 -1792 0
-1632 -1793 0
-1632 -1794 0
-1632 -1795 0
-1632 -1797 0
-1632 -1798 0
-1632 -1799 0
-1632 -1800 0
-1633 -1641 0
-1633 -1642 0
-1633 -1643 0
-1633 -1645 0
-1633 -1646 0
-1633 -1647 0
-1633 -1648 0
-1633 -1649 0
-1633 -1650 0
-1633 -1791 0
-1633 -1792 0
-1633 -1793 0
-1633 -1794 0
-1633 -1795 0
-1633 -1796 0
-1633 -1798 0
-1633 -1799 0
-1633 -1800 0
-1634 -1642 0
-1634 -1643 0
-1634 -1644 0
-1634 -1645 0
-1634 -1646 0
-1634 -1647 0
-1634 -1648 0
-1634 -1649 0
-1634 -1650 0
-1634 -1791 0
-1634 -1792 0
-1634 -1793 0
-1634 -1794 0
-1634 -1795 0
-1634 -1796 0
-1634 -1797 0
-1634 -1799 0
-1634 -1800 0
-1635 -1641 0
-1635 -1642 0
-1635 -1643 0
-1635 -1644 0
-1635 -1645 0
-1635 -1647 0
-1635 -1648 0
-1635 -1650 0
-1635 -1791 0
-1635 -1792 0
-1635 -1794 0
-1635 -1795 0
-1635 -1796 0
-1635 -1797 0
-1635 -1798 0
-1635 -1800 0
-1636 -1641 0
-1636 -1642 0
-1636 -1643 0
-1636 -1644 0
-1636 -1645 0
-1636 -1646 0
-1636 -1648 0
-1636 -1649 0
-1636 -1650 0
-1636 -1791 0
-1636 -1792 0
-1636 -1793 0
-1636 -1795 0
-1636 -1796 0
-1636 -1797 0
-1636 -1798 0
-1636 -1799 0
-1637 -1641 0
-1637 -1642 0
-1637 -1643 0
-1637 -1644 0
-1637 -1645 0
-1637 -1646 0
-1637 -1647 0
-1637 -1649 0
-1637 -1650 0
-1637 -1792 0
-1637 -1793 0
-1637 -1794 0
-1637 -1795 0
-1637 -1796 0
-1637 -1797 0
-1637 -1798 0
-1637 -1799 0
-1637 -1800 0
-1638 -1641 0
-1638 -1643 0
-1638 -1644 0
-1638 -1646 0
-1638 -1647 0
-1638 -1648 0
-1638 -1649 0
-1638 -1650 0
-1638 -1791 0
-1638 -1793 0
-1638 -1794 0
-1638 -1796 0
-1638 -1797 0
-1638 -1798 0
-1638 -1799 0
-1638 -1800 0
-1639 -1641 0
-1639 -1642 0
-1639 -1643 0
-1639 -1644 0
-1639 -1645 0
-1639 -1646 0
-1639 -1647 0
-1639 -1648 0
-1639 -1649 0
-1639 -1791 0
-1639 -1792 0
-1639 -1793 0
-1639 -1795 0
-1639 -1796 0
-1639 -1797 0
-1639 -1798 0
-1639 -1799 0
-1640 -1642 0
-1640 -1643 0
-1640 -1644 0
-1640 -1645 0
-1640 -1646 0
-1640 -1647 0
-1640 -1648 0
-1640 -1649 0
-1640 -1650 0
-1640 -1792 0
-1640 -1793 0
-1640 -1794 0
-1640 -1795 0
-1640 -1796 0
-1640 -1797 0
-1640 -1798 0
-1640 -1799 0
-1640 -1800 0
-1641 -1651 0
-1641 -1653 0
-1641 -1654 0
-1641 -1656 0
-1641 -1657 0
-1641 -1658 0
-1641 -1659 0
-1641 -1660 0
-1641 -1801 0
-1641 -1803 0
-1641 -1804 0
-1641 -1806 0
-1641 -1807 0
-1641 -1808 0
-1641 -1809 0
-1641 -1810 0
-1642 -1651 0
-1642 -1652 0
-1642 -1654 0
-1642 -1655 0
-1642 -1656 0
-1642 -1657 0
-1642 -1658 0
-1642 -1659 0
-1642 -1660 0
-1642 -1801 0
-1642 -1802 0
-1642 -1803 0
-1642 -1804 0
-1642 -1805 0
-1642 -1807 0
-1642 -1808 0
-1642 -1809 0
-1642 -1810 0
-1643 -1651 0
-1643 -1652 0
-1643 -1653 0
-1643 -1655 0
-1643 -1656 0
-1643 -1657 0
-1643 -1658 0
-1643 -1659 0
-1643 -1660 0
-1643 -1801 0
-1643 -1802 0
-1643 -1803 0
-1643 -1804 0
-1643 -1805 0
-1643 -1806 0
-1643 -1808 0
-1643 -1809 0
-1643 -1810 0
-1644 -1652 0
-1644 -1653 0
-1644 -1654 0
-1644 -1655 0
-1644 -1656 0
-1644 -1657 0
-1644 -1658 0
-1644 -1659 0
-1644 -1660 0
-1644 -1801 0
-1644 -1802 0
-1644 -1803 0
-1644 -1804 0
-1644 -1805 0
-1644 -1806 0
-1644 -1807 0
-1644 -1809 0
-1644 -1810 0
-1645 -1651 0
-1645 -1652 0
-1645 -1653 0
-1645 -1654 0
-1645 -1655 0
-1645 -1657 0
-1645 -1658 0
-1645 -1660 0
-1645 -1801 0
-1645 -1802 0
-1645 -1804 0
-1645 -1805 0
-1645 -1806 0
-1645 -1807 0
-1645 -1808 0
-1645 -1810 0
-1646 -1651 0
-1646 -1652 0
-1646 -1653 0
-1646 -1654 0
-1646 -1655 0
-1646 -1656 0
-1646 -1658 0
-1646 -1659 0
-1646 -1660 0
-1646 -1801 0
-1646 -1802 0
-1646 -1803 0
-1646 -1805 0
-1646 -1806 0
-1646 -1807 0
-1646 -1808 0
-1646 -1809 0
-1647 -1651 0
-1647 -1652 0
-1647 -1653 0
-1647 -1654 0
-1647 -1655 0
-1647 -1656 0
-1647 -1657 0
-1647 -1659 0
-1647 -1660 0
-1647 -1802 0
-1647 -1803 0
-1647 -1804 0
-1647 -1805 0
-1647 -1806 0
-1647 -1807 0
-1647 -1808 0
-1647 -1809 0
-1647 -1810 0
-1648 -1651 0
-1648 -1653 0
-1648 -1654 0
-1648 -1656 0
-1648 -1657 0
-1648 -1658 0
-1648 -1659 0
-1648 -1660 0
-1648 -1801 0
-1648 -1803 0
-1648 -1804 0
-1648 -1806 0
-1648 -1807 0
-1648 -1808 0
-1648 -1809 0
-1648 -1810 0
-1649 -1651 0
-1649 -1652 0
-1649 -1653 0
-1649 -1654 0
-1649 -1655 0
-1649 -1656 0
-1649 -1657 0
-1649 -1658 0
-1649 -1659 0
-1649 -1801 0
-1649 -1802 0
-1649 -1803 0
-1649 -1805 0
-1649 -1806 0
-1649 -1807 0
-1649 -1808 0
-1649 -1809 0
-1650 -1652 0
-1650 -1653 0
-1650 -1654 0
-1650 -1655 0
-1650 -1656 0
-1650 -1657 0
-1650 -1658 0
-1650 -1659 0
-1650 -1660 0
-1650 -1802 0
-1650 -1803 0
-1650 -1804 0
-1650 -1805 0
-1650 -1806 0
-1650 -1807 0
-1650 -1808 0
-1650 -1809 0
-1650 -1810 0
-1651 -1661 0
-1651 -1663 0
-1651 -1664 0
-1651 -1666 0
-1651 -1667 0
-1651 -1668 0
-1651 -1669 0
-1651 -1670 0
-1651 -1811 0
-1651 -1813 0
-1651 -1814 0
-1651 -1816 0
-1651 -1817 0
-1651 -1818 0
-1651 -1819 0
-1651 -1820 0
-1652 -1661 0
-1652 -1662 0
-1652 -1664 0
-1652 -1665 0
-1652 -1666 0
-1652 -1667 0
-1652 -1668 0
-1652 -1669 0
-1652 -1670 0
-1652 -1811 0
-1652 -1812 0
-1652 -1813 0
-1652 -1814 0
-1652 -1815 0
-1652 -1817 0
-1652 -1818 0
-1652 -1819 0
-1652 -1820 0
-1653 -1661 0
-1653 -1662 0
-1653 -1663 0
-1653 -1665 0
-1653 -1666 0
-1653 -1667 0
-1653 -1668 0
-1653 -1669 0
-1653 -1670 0
-1653 -1811 0
-1653 -1812 0
-1653 -1813 0
-1653 -1814 0
-1653 -1815 0
-1653 -1816 0
-1653 -1818 0
-1653 -1819 0
-1653 -1820 0
-1654 -1662 0
-1654 -1663 0
-1654 -1664 0
-1654 -1665 0
-1654 -1666 0
-1654 -1667 0
-1654 -1668 0
-1654 -1669 0
-1654 -1670 0
-1654 -1811 0
-1654 -1812 0
-1654 -1813 0
-1654 -1814 0
-1654 -1815 0
-1654 -1816 0
-1654 -1817 0
-1654 -1819 0
-1654 -1820 0
-1655 -1661 0
-1655 -1662 0
-1655 -1663 0
-1655 -1664 0
-1655 -1665 0
-1655 -1667 0
-1655 -1668 0
-1655 -1670 0
-1655 -1811 0
-1655 -1812 0
-1655 -1814 0
-1655 -1815 0
-1655 -1816 0
-1655 -1817 0
-1655 -1818 0
-1655 -1820 0
-1656 -1661 0
-1656 -1662 0
-1656 -1663 0
-1656 -1664 0
-1656 -1665 0
-1656 -1666 0
-1656 -1668 0
-1656 -1669 0
-1656 -1670 0
-1656 -1811 0
-1656 -1812 0
-1656 -1813 0
-1656 -1815 0
-1656 -1816 0
-1656 -1817 0
-1656 -1818 0
-1656 -1819 0
-1657 -1661 0
-1657 -1662 0
-1657 -1663 0
-1657 -1664 0
-1657 -1665 0
-1657 -1666 0
-1657 -1667 0
-1657 -1669 0
-1657 -1670 0
-1657 -1812 0
-1657 -1813 0
-1657 -1814 0
-1657 -1815 0
-1657 -1816 0
-1657 -1817 0
-1657 -1818 0
-1657 -1819 0
-1657 -1820 0
-1658 -1661 0
-1658 -1663 0
-1658 -1664 0
-1658 -1666 0
-1658 -1667 0
-1658 -1668 0
-1658 -1669 0
-1658 -1670 0
-1658 -1811 0
-1658 -1813 0
-1658 -1814 0
-1658 -1816 0
-1658 -1817 0
-1658 -1818 0
-1658 -1819 0
-1658 -1820 0
-1659 -1661 0
-1659 -1662 0
-1659 -1663 0
-1659 -1664 0
-1659 -1665 0
-1659 -1666 0
-1659 -1667 0
-1659 -1668 0
-1659 -1669 0
-1659 -1811 0
-1659 -1812 0
-1659 -1813 0
-1659 -1815 0
-1659 -1816 0
-1659 -1817 0
-1659 -1818 0
-1659 -1819 0
-1660 -1662 0
-1660 -1663 0
-1660 -1664 0
-1660 -1665 0
-1660 -1666 0
-1660 -1667 0
-1660 -1668 0
-1660 -1669 0
-1660 -1670 0
-1660 -1812 0
-1660 -1813 0
-1660 -1814 0
-1660 -1815 0
-1660 -1816 0
-1660 -1817 0
-1660 -1818 0
-1660 -1819 0
-1660 -1820 0
-1661 -1671 0
-1661 -1673 0
-1661 -1674 0
-1661 -1676 0
-1661 -1677 0
-1661 -1678 0
-1661 -1679 0
-1661 -1680 0
-1661 -1821 0
-1661 -1823 0
-1661 -1824 0
-1661 -1826 0
-1661 -1827 0
-1661 -1828 0
-1661 -1829 0
-1661 -1830 0
-1662 -1671 0
-1662 -1672 0
-1662 -1674 0
-1662 -1675 0
-1662 -1676 0
-1662 -1677 0
-1662 -1678 0
-1662 -1679 0
-1662 -1680 0
-1662 -1821 0
-1662 -1822 0
-1662 -1823 0
-1662 -1824 0
-1662 -1825 0
-1662 -1827 0
-1662 -1828 0
-1662 -1829 0
-1662 -1830 0
-1663 -1671 0
-1663 -1672 0
-1663 -1673 0
-1663 -1675 0
-1663 -1676 0
-1663 -1677 0
-1663 -1678 0
-1663 -1679 0
-1663 -1680 0
-1663 -1821 0
-1663 -1822 0
-1663 -1823 0
-1663 -1824 0
-1663 -1825 0
-1663 -1826 0
-1663 -1828 0
-1663 -1829 0
-1663 -1830 0
-1664 -1672 0
-1664 -1673 0
-1664 -1674 0
-1664 -1675 0
-1664 -1676 0
-1664 -1677 0
-1664 -1678 0
-1664 -1679 0
-1664 -1680 0
-1664 -1821 0
-1664 -1822 0
-1664 -1823 0
-1664 -1824 0
-1664 -1825 0
-1664 -1826 0
-1664 -1827 0
-1664 -1829 0
-1664 -1830 0
-1665 -1671 0
-1665 -1672 0
-1665 -1673 0
-1665 -1674 0
-1665 -1675 0
-1665 -1677 0
-1665 -1678 0
-1665 -1680 0
-1665 -1821 0
-1665 -1822 0
-1665 -1824 0
-1665 -1825 0
-1665 -1826 0
-1665 -1827 0
-1665 -1828 0
-1665 -1830 0
-1666 -1671 0
-1666 -1672 0
-1666 -1673 0
-1666 -1674 0
-1666 -1675 0
-1666 -1676 0
-1666 -1678 0
-1666 -1679 0
-1666 -1680 0
-1666 -1821 0
-1666 -1822 0
-1666 -1823 0
-1666 -1825 0
-1666 -1826 0
-1666 -1827 0
-1666 -1828 0
-1666 -1829 0
-1667 -1671 0
-1667 -1672 0
-1667 -1673 0
-1667 -1674 0
-1667 -1675 0
-1667 -1676 0
-1667 -1677 0
-1667 -1679 0
-1667 -1680 0
-1667 -1822 0
-1667 -1823 0
-1667 -1824 0
-1667 -1825 0
-1667 -1826 0
-1667 -1827 0
-1667 -1828 0
-1667 -1829 0
-1667 -1830 0
-1668 -1671 0
-1668 -1673 0
-1668 -1674 0
-1668 -1676 0
-1668 -1677 0
-1668 -1678 0
-1668 -1679 0
-1668 -1680 0
-1668 -1821 0
-1668 -1823 0
-1668 -1824 0
-1668 -1826 0
-1668 -1827 0
-1668 -1828 0
-1668 -1829 0
-1668 -1830 0
-1669 -1671 0
-1669 -1672 0
-1669 -1673 0
-1669 -1674 0
-1669 -1675 0
-1669 -1676 0
-1669 -1677 0
-1669 -1678 0
-1669 -1679 0
-1669 -1821 0
-1669 -1822 0
-1669 -1823 0
-1669 -1825 0
-1669 -1826 0
-1669 -1827 0
-1669 -1828 0
-1669 -1829 0
-1670 -1672 0
-1670 -1673 0
-1670 -1674 0
-1670 -1675 0
-1670 -1676 0
-1670 -1677 0
-1670 -1678 0
-1670 -1679 0
-1670 -1680 0
-1670 -1822 0
-1670 -1823 0
-1670 -1824 0
-1670 -1825 0
-1670 -1826 0
-1670 -1827 0
-1670 -1828 0
-1670 -1829 0
-1670 -1830 0
-1671 -1681 0
-1671 -1683 0
-1671 -1684 0
-1671 -1686 0
-1671 -1687 0
-1671 -1688 0
-1671 -1689 0
-1671 -1690 0
-1671 -1831 0
-1671 -1833 0
-1671 -1834 0
-1671 -1836 0
-1671 -1837 0
-1671 -1838 0
-1671 -1839 0
-1671 -1840 0
-1672 -1681 0
-1672 -1682 0
-1672 -1684 0
-1672 -1685 0
-1672 -1686 0
-1672 -1687 0
-1672 -1688 0
-1672 -1689 0
-1672 -1690 0
-1672 -1831 0
-1672 -1832 0
-1672 -1833 0
-1672 -1834 0
-1672 -1835 0
-1672 -1837 0
-1672 -1838 0
-1672 -1839 0
-1672 -1840 0
-1673 -1681 0
-1673 -1682 0
-1673 -1683 0
-1673 -1685 0
-1673 -1686 0
-1673 -1687 0
-1673 -1688 0
-1673 -1689 0
-1673 -1690 0
-1673 -1831 0
-1673 -1832 0
-1673 -1833 0
-1673 -1834 0
-1673 -1835 0
-1673 -1836 0
-1673 -1838 0
-1673 -1839 0
-1673 -1840 0
-1674 -1682 0
-1674 -1683 0
-1674 -1684 0
-1674 -1685 0
-1674 -1686 0
-1674 -1687 0
-1674 -1688 0
-1674 -1689 0
-1674 -1690 0
-1674 -1831 0
-1674 -1832 0
-1674 -1833 0
-1674 -1834 0
-1674 -1835 0
-1674 -1836 0
-1674 -1837 0
-1674 -1839 0
-1674 -1840 0
-1675 -1681 0
-1675 -1682 0
-1675 -1683 0
-1675 -1684 0
-1675 -1685 0
-1675 -1687 0
-1675 -1688 0
-1675 -1690 0
-1675 -1831 0
-1675 -1832 0
-1675 -1834 0
-1675 -1835 0
-1675 -1836 0
-1675 -1837 0
-1675 -1838 0
-1675 -1840 0
-1676 -1681 0
-1676 -1682 0
-1676 -1683 0
-1676 -1684 0
-1676 -1685 0
-1676 -1686 0
-1676 -1688 0
-1676 -1689 0
-1676 -1690 0
-1676 -1831 0
-1676 -1832 0
-1676 -1833 0
-1676 -1835 0
-1676 -1836 0
-1676 -1837 0
-1676 -1838 0
-1676 -1839 0
-1677 -1681 0
-1677 -1682 0
-1677 -1683 0
-1677 -1684 0
-1677 -1685 0
-1677 -1686 0
-1677 -1687 0
-1677 -1689 0
-1677 -1690 0
-1677 -1832 0
-1677 -1833 0
-1677 -1834 0
-1677 -1835 0
-1677 -1836 0
-1677 -1837 0
-1677 -1838 0
-1677 -1839 0
-1677 -1840 0
-1678 -1681 0
-1678 -1683 0
-1678 -1684 0
-1678 -1686 0
-1678 -1687 0
-1678 -1688 0
-1678 -1689 0
-1678 -1690 0
-1678 -1831 0
-1678 -1833 0
-1678 -1834 0
-1678 -1836 0
-1678 -1837 0
-1678 -1838 0
-1678 -1839 0
-1678 -1840 0
-1679 -1681 0
-1679 -1682 0
-1679 -1683 0
-1679 -1684 0
-1679 -1685 0
-1679 -1686 0
-1679 -1687 0
-1679 -1688 0
-1679 -1689 0
-1679 -1831 0
-1679 -1832 0
-1679 -1833 0
-1679 -1835 0
-1679 -1836 0
-1679 -1837 0
-1679 -1838 0
-1679 -1839 0
-1680 -1682 0
-1680 -1683 0
-1680 -1684 0
-1680 -1685 0
-1680 -1686 0
-1680 -1687 0
-1680 -1688 0
-1680 -1689 0
-1680 -1690 0
-1680 -1832 0
-1680 -1833 0
-1680 -1834 0
-1680 -1835 0
-1680 -1836 0
-1680 -1837 0
-1680 -1838 0
-1680 -1839 0
-1680 -1840 0
-1681 -1691 0
-1681 -1693 0
-1681 -1694 0
-1681 -1696 0
-1681 -1697 0
-1681 -1698 0
-1681 -1699 0
-1681 -1700 0
-1681 -1841 0
-1681 -1843 0
-1681 -1844 0
-1681 -1846 0
-1681 -1847 0
-1681 -1848 0
-1681 -1849 0
-1681 -1850 0
-1682 -1691 0
-1682 -1692 0
-1682 -1694 0
-1682 -1695 0
-1682 -1696 0
-1682 -1697 0
-1682 -1698 0
-1682 -1699 0
-1682 -1700 0
-1682 -1841 0
-1682 -1842 0
-1682 -1843 0
-1682 -1844 0
-1682 -1845 0
-1682 -1847 0
-1682 -1848 0
-1682 -1849 0
-1682 -1850 0
-1683 -1691 0
-1683 -1692 0
-1683 -1693 0
-1683 -1695 0
-1683 -1696 0
-1683 -1697 0
-1683 -1698 0
-1683 -1699 0
-1683 -1700 0
-1683 -1841 0
-1683 -1842 0
-1683 -1843 0
-1683 -1844 0
-1683 -1845 0
-1683 -1846 0
-1683 -1848 0
-1683 -1849 0
-1683 -1850 0
-1684 -1692 0
-1684 -1693 0
-1684 -1694 0
-1684 -1695 0
-1684 -1696 0
-1684 -1697 0
-1684 -1698 0
-1684 -1699 0
-1684 -1700 0
-1684 -1841 0
-1684 -1842 0
-1684 -1843 0
-1684 -1844 0
-1684 -1845 0
-1684 -1846 0
-1684 -1847 0
-1684 -1849 0
-1684 -1850 0
-1685 -1691 0
-1685 -1692 0
-1685 -1693 0
-1685 -1694 0
-1685 -1695 0
-1685 -1697 0
-1685 -1698 0
-1685 -1700 0
-1685 -1841 0
-1685 -1842 0
-1685 -1844 0
-1685 -1845 0
-1685 -1846 0
-1685 -1847 0
-1685 -1848 0
-1685 -1850 0
-1686 -1691 0
-1686 -1692 0
-1686 -1693 0
-1686 -1694 0
-1686 -1695 0
-1686 -1696 0
-1686 -1698 0
-1686 -1699 0
-1686 -1700 0
-1686 -1841 0
-1686 -1842 0
-1686 -1843 0
-1686 -1845 0
-1686 -1846 0
-1686 -1847 0
-1686 -1848 0
-1686 -1849 0
-1687 -1691 0
-1687 -1692 0
-1687 -1693 0
-1687 -1694 0
-1687 -1695 0
-1687 -1696 0
-1687 -1697 0
-1687 -1699 0
-1687 -1700 0
-1687 -1842 0
-1687 -1843 0
-1687 -1844 0
-1687 -1845 0
-1687 -1846 0
-1687 -1847 0
-1687 -1848 0
-1687 -1849 0
-1687 -1850 0
-1688 -1691 0
-1688 -1693 0
-1688 -1694 0
-1688 -1696 0
-1688 -1697 0
-1688 -1698 0
-1688 -1699 0
-1688 -1700 0
-1688 -1841 0
-1688 -1843 0
-1688 -1844 0
-1688 -1846 0
-1688 -1847 0
-1688 -1848 0
-1688 -1849 0
-1688 -1850 0
-1689 -1691 0
-1689 -1692 0
-1689 -1693 0
-1689 -1694 0
-1689 -1695 0
-1689 -1696 0
-1689 -1697 0
-1689 -1698 0
-1689 -1699 0
-1689 -1841 0
-1689 -1842 0
-1689 -1843 0
-1689 -1845 0
-1689 -1846 0
-1689 -1847 0
-1689 -1848 0
-1689 -1849 0
-1690 -1692 0
-1690 -1693 0
-1690 -1694 0
-1690 -1695 0
-1690 -1696 0
-1690 -1697 0
-1690 -1698 0
-1690 -1699 0
-1690 -1700 0
-1690 -1842 0
-1690 -1843 0
-1690 -1844 0
-1690 -1845 0
-1690 -1846 0
-1690 -1847 0
-1690 -1848 0
-1690 -1849 0
-1690 -1850 0
-1691 -1701 0
-1691 -1703 0
-1691 -1704 0
-1691 -1706 0
-1691 -1707 0
-1691 -1708 0
-1691 -1709 0
-1691 -1710 0
-1691 -1851 0
-1691 -1853 0
-1691 -1854 0
-1691 -1856 0
-1691 -1857 0
-1691 -1858 0
-1691 -1859 0
-1691 -1860 0
-1692 -1701 0
-1692 -1702 0
-1692 -1704 0
-1692 -1705 0
-1692 -1706 0
-1692 -1707 0
-1692 -1708 0
-1692 -1709 0
-1692 -1710 0
-1692 -1851 0
-1692 -1852 0
-1692 -1853 0
-1692 -1854 0
-1692 -1855 0
-1692 -1857 0
-1692 -1858 0
-1692 -1859 0
-1692 -1860 0
-1693 -1701 0
-1693 -1702 0
-1693 -1703 0
-1693 -1705 0
-1693 -1706 0
-1693 -1707 0
-1693 -1708 0
-1693 -1709 0
-1693 -1710 0
-1693 -1851 0
-1693 -1852 0
-1693 -1853 0
-1693 -1854 0
-1693 -1855 0
-1693 -1856 0
-1693 -1858 0
-1693 -1859 0
-1693 -1860 0
-1694 -1702 0
-1694 -1703 0
-1694 -1704 0
-1694 -1705 0
-1694 -1706 0
-1694 -1707 0
-1694 -1708 0
-1694 -1709 0
-1694 -1710 0
-1694 -1851 0
-1694 -1852 0
-1694 -1853 0
-1694 -1854 0
-1694 -1855 0
-1694 -1856 0
-1694 -1857 0
-1694 -1859 0
-1694 -1860 0
-1695 -1701 0
-1695 -1702 0
-1695 -1703 0
-1695 -1704 0
-1695 -1705 0
-1695 -1707 0
-1695 -1708 0
-1695 -1710 0
-1695 -1851 0
-1695 -1852 0
-1695 -1854 0
-1695 -1855 0
-1695 -1856 0
-1695 -1857 0
-1695 -1858 0
-1695 -1860 0
-1696 -1701 0
-1696 -1702 0
-1696 -1703 0
-1696 -1704 0
-1696 -1705 0
-1696 -1706 0
-1696 -1708 0
-1696 -1709 0
-1696 -1710 0
-1696 -1851 0
-1696 -1852 0
-1696 -1853 0
-1696 -1855 0
-1696 -1856 0
-1696 -1857 0
-1696 -1858 0
-1696 -1859 0
-1697 -1701 0
-1697 -1702 0
-1697 -1703 0
-1697 -1704 0
-1697 -1705 0
-1697 -1706 0
-1697 -1707 0
-1697 -1709 0
-1697 -1710 0
-1697 -1852 0
-1697 -1853 0
-1697 -1854 0
-1697 -1855 0
-1697 -1856 0
-1697 -1857 0
-1697 -1858 0
-1697 -1859 0
-1697 -1860 0
-1698 -1701 0
-1698 -1703 0
-1698 -1704 0
-1698 -1706 0
-1698 -1707 0
-1698 -1708 0
-1698 -1709 0
-1698 -1710 0
-1698 -1851 0
-1698 -1853 0
-1698 -1854 0
-1698 -1856 0
-1698 -1857 0
-1698 -1858 0
-1698 -1859 0
-1698 -1860 0
-1699 -1701 0
-1699 -1702 0
-1699 -1703 0
-1699 -1704 0
-1699 -1705 0
-1699 -1706 0
-1699 -1707 0
-1699 -1708 0
-1699 -1709 0
-1699 -1851 0
-1699 -1852 0
-1699 -1853 0
-1699 -1855 0
-1699 -1856 0
-1699 -1857 0
-1699 -1858 0
-1699 -1859 0
-1700 -1702 0
-1700 -1703 0
-1700 -1704 0
-1700 -1705 0
-1700 -1706 0
-1700 -1707 0
-1700 -1708 0
-1700 -1709 0
-1700 -1710 0
-1700 -1852 0
-1700 -1853 0
-1700 -1854 0
-1700 -1855 0
-1700 -1856 0
-1700 -1857 0
-1700 -1858 0
-1700 -1859 0
-1700 -1860 0
-1701 -1711 0
-1701 -1713 0
-1701 -1714 0
-1701 -1716 0
-1701 -1717 0
-1701 -1718 0
-1701 -1719 0
-1701 -1720 0
-1701 -1861 0
-1701 -1863 0
-1701 -1864 0
-1701 -1866 0
-1701 -1867 0
-1701 -1868 0
-1701 -1869 0
-1701 -1870 0
-1702 -1711 0
-1702 -1712 0
-1702 -1714 0
-1702 -1715 0
-1702 -1716 0
-1702 -1717 0
-1702 -1718 0
-1702 -1719 0
-1702 -1720 0
-1702 -1861 0
-1702 -1862 0
-1702 -1863 0
-1702 -1864 0
-1702 -1865 0
-1702 -1867 0
-1702 -1868 0
-1702 -1869 0
-1702 -1870 0
-1703 -1711 0
-1703 -1712 0
-1703 -1713 0
-1703 -1715 0
-1703 -1716 0
-1703 -1717 0
-1703 -1718 0
-1703 -1719 0
-1703 -1720 0
-1703 -1861 0
-1703 -1862 0
-1703 -1863 0
-1703 -1864 0
-1703 -1865 0
-1703 -1866 0
-1703 -1868 0
-1703 -1869 0
-1703 -1870 0
-1704 -1712 0
-1704 -1713 0
-1704 -1714 0
-1704 -1715 0
-1704 -1716 0
-1704 -1717 0
-1704 -1718 0
-1704 -1719 0
-1704 -1720 0
-1704 -1861 0
-1704 -1862 0
-1704 -1863 0
-1704 -1864 0
-1704 -1865 0
-1704 -1866 0
-1704 -1867 0
-1704 -1869 0
-1704 -1870 0
-1705 -1711 0
-1705 -1712 0
-1705 -1713 0
-1705 -1714 0
-1705 -1715 0
-1705 -1717 0
-1705 -1718 0
-1705 -1720 0
-1705 -1861 0
-1705 -1862 0
-1705 -1864 0
-1705 -1865 0
-1705 -1866 0
-1705 -1867 0
-1705 -1868 0
-1705 -1870 0
-1706 -1711 0
-1706 -1712 0
-1706 -1713 0
-1706 -1714 0
-1706 -1715 0
-1706 -1716 0
-1706 -1718 0
-1706 -1719 0
-1706 -1720 0
-1706 -1861 0
-1706 -1862 0
-1706 -1863 0
-1706 -1865 0
-1706 -1866 0
-1706 -1867 0
-1706 -1868 0
-1706 -1869 0
-1707 -1711 0
-1707 -1712 0
-1707 -1713 0
-1707 -1714 0
-1707 -1715 0
-1707 -1716 0
-1707 -1717 0
-1707 -1719 0
-1707 -1720 0
-1707 -1862 0
-1707 -1863 0
-1707 -1864 0
-1707 -1865 0
-1707 -1866 0
-1707 -1867 0
-1707 -1868 0
-1707 -1869 0
-1707 -1870 0
-1708 -1711 0
-1708 -1713 0
-1708 -1714 0
-1708 -1716 0
-1708 -1717 0
-1708 -1718 0
-1708 -1719 0
-1708 -1720 0
-1708 -1861 0
-1708 -1863 0
-1708 -1864 0
-1708 -1866 0
-1708 -1867 0
-1708 -1868 0
-1708 -1869 0
-1708 -1870 0
-1709 -1711 0
-1709 -1712 0
-1709 -1713 0
-1709 -1714 0
-1709 -1715 0
-1709 -1716 0
-1709 -1717 0
-1709 -1718 0
-1709 -1719 0
-1709 -1861 0
-1709 -1862 0
-1709 -1863 0
-1709 -1865 0
-1709 -1866 0
-1709 -1867 0
-1709 -1868 0
-1709 -1869 0
-1710 -1712 0
-1710 -1713 0
-1710 -1714 0
-1710 -1715 0
-1710 -1716 0
-1710 -1717 0
-1710 -1718 0
-1710 -1719 0
-1710 -1720 0
-1710 -1862 0
-1710 -1863 0
-1710 -1864 0
-1710 -1865 0
-1710 -1866 0
-1710 -1867 0
-1710 -1868 0
-1710 -1869 0
-1710 -1870 0
-1711 -1721 0
-1711 -1723 0
-1711 -1724 0
-1711 -1726 0
-1711 -1727 0
-1711 -1728 0
-1711 -1729 0
-1711 -1730 0
-1711 -1871 0
-1711 -1873 0
-1711 -1874 0
-1711 -1876 0
-1711 -1877 0
-1711 -1878 0
-1711 -1879 0
-1711 -1880 0
-1712 -1721 0
-1712 -1722 0
-1712 -1724 0
-1712 -1725 0
-1712 -1726 0
-1712 -1727 0
-1712 -1728 0
-1712 -1729 0
-1712 -1730 0
-1712 -1871 0
-1712 -1872 0
-1712 -1873 0
-1712 -1874 0
-1712 -1875 0
-1712 -1877 0
-1712 -1878 0
-1712 -1879 0
-1712 -1880 0
-1713 -1721 0
-1713 -1722 0
-1713 -1723 0
-1713 -1725 0
-1713 -1726 0
-1713 -1727 0
-1713 -1728 0
-1713 -1729 0
-1713 -1730 0
-1713 -1871 0
-1713 -1872 0
-1713 -1873 0
-1713 -1874 0
-1713 -1875 0
-1713 -1876 0
-1713 -1878 0
-1713 -1879 0
-1713 -1880 0
-1714 -1722 0
-1714 -1723 0
-1714 -1724 0
-1714 -1725 0
-1714 -1726 0
-1714 -1727 0
-1714 -1728 0
-1714 -1729 0
-1714 -1730 0
-1714 -1871 0
-1714 -1872 0
-1714 -1873 0
-1714 -1874 0
-1714 -1875 0
-1714 -1876 0
-1714 -1877 0
-1714 -1879 0
-1714 -1880 0
-1715 -1721 0
-1715 -1722 0
-1715 -1723 0
-1715 -1724 0
-1715 -1725 0
-1715 -1727 0
-1715 -1728 0
-1715 -1730 0
-1715 -1871 0
-1715 -1872 0
-1715 -1874 0
-1715 -1875 0
-1715 -1876 0
-1715 -1877 0
-1715 -1878 0
-1715 -1880 0
-1716 -1721 0
-1716 -1722 0
-1716 -1723 0
-1716 -1724 0
-1716 -1725 0
-1716 -1726 0
-1716 -1728 0
-1716 -1729 0
-1716 -1730 0
-1716 -1871 0
-1716 -1872 0
-1716 -1873 0
-1716 -1875 0
-1716 -1876 0
-1716 -1877 0
-1716 -1878 0
-1716 -1879 0
-1717 -1721 0
-1717 -1722 0
-1717 -1723 0
-1717 -1724 0
-1717 -1725 0
-1717 -1726 0
-1717 -1727 0
-1717 -1729 0
-1717 -1730 0
-1717 -1872 0
-1717 -1873 0
-1717 -1874 0
-1717 -1875 0
-1717 -1876 0
-1717 -1877 0
-1717 -1878 0
-1717 -1879 0
-1717 -1880 0
-1718 -1721 0
-1718 -1723 0
-1718 -1724 0
-1718 -1726 0
-1718 -1727 0
-1718 -1728 0
-1718 -1729 0
-1718 -1730 0
-1718 -1871 0
-1718 -1873 0
-1718 -1874 0
-1718 -1876 0
-1718 -1877 0
-1718 -1878 0
-1718 -1879 0
-1718 -1880 0
-1719 -1721 0
-1719 -1722 0
-1719 -1723 0
-1719 -1724 0
-1719 -1725 0
-1719 -1726 0
-1719 -1727 0
-1719 -1728 0
-1719 -1729 0
-1719 -1871 0
-1719 -1872 0
-1719 -1873 0
-1719 -1875 0
-1719 -1876 0
-1719 -1877 0
-1719 -1878 0
-1719 -1879 0
-1720 -1722 0
-1720 -1723 0
-1720 -1724 0
-1720 -1725 0
-1720 -1726 0
-1720 -1727 0
-1720 -1728 0
-1720 -1729 0
-1720 -1730 0
-1720 -1872 0
-1720 -1873 0
-1720 -1874 0
-1720 -1875 0
-1720 -1876 0
-1720 -1877 0
-1720 -1878 0
-1720 -1879 0
-1720 -1880 0
-1721 -1731 0
-1721 -1733 0
-1721 -1734 0
-1721 -1736 0
-1721 -1737 0
-1721 -1738 0
-1721 -1739 0
-1721 -1740 0
-1721 -1881 0
-1721 -1883 0
-1721 -1884 0
-1721 -1886 0
-1721 -1887 0
-1721 -1888 0
-1721 -1889 0
-1721 -1890 0
-1722 -1731 0
-1722 -1732 0
-1722 -1734 0
-1722 -1735 0
-1722 -1736 0
-1722 -1737 0
-1722 -1738 0
-1722 -1739 0
-1722 -1740 0
-1722 -1881 0
-1722 -1882 0
-1722 -1883 0
-1722 -1884 0
-1722 -1885 0
-1722 -1887 0
-1722 -1888 0
-1722 -1889 0
-1722 -1890 0
-1723 -1731 0
-1723 -1732 0
-1723 -1733 0
-1723 -1735 0
-1723 -1736 0
-1723 -1737 0
-1723 -1738 0
-1723 -1739 0
-1723 -1740 0
-1723 -1881 0
-1723 -1882 0
-1723 -1883 0
-1723 -1884 0
-1723 -1885 0
-1723 -1886 0
-1723 -1888 0
-1723 -1889 0
-1723 -1890 0
-1724 -1732 0
-1724 -1733 0
-1724 -1734 0
-1724 -1735 0
-1724 -1736 0
-1724 -1737 0
-1724 -1738 0
-1724 -1739 0
-1724 -1740 0
-1724 -1881 0
-1724 -1882 0
-1724 -1883 0
-1724 -1884 0
-1724 -1885 0
-1724 -1886 0
-1724 -1887 0
-1724 -1889 0
-1724 -1890 0
-1725 -1731 0
-1725 -1732 0
-1725 -1733 0
-1725 -1734 0
-1725 -1735 0
-1725 -1737 0
-1725 -1738 0
-1725 -1740 0
-1725 -1881 0
-1725 -1882 0
-1725 -1884 0
-1725 -1885 0
-1725 -1886 0
-1725 -1887 0
-1725 -1888 0
-1725 -1890 0
-1726 -1731 0
-1726 -1732 0
-1726 -1733 0
-1726 -1734 0
-1726 -1735 0
-1726 -1736 0
-1726 -1738 0
-1726 -1739 0
-1726 -1740 0
-1726 -1881 0
-1726 -1882 0
-1726 -1883 0
-1726 -1885 0
-1726 -1886 0
-1726 -1887 0
-1726 -1888 0
-1726 -1889 0
-1727 -1731 0
-1727 -1732 0
-1727 -1733 0
-1727 -1734 0
-1727 -1735 0
-1727 -1736 0
-1727 -1737 0
-1727 -1739 0
-1727 -1740 0
-1727 -1882 0
-1727 -1883 0
-1727 -1884 0
-1727 -1885 0
-1727 -1886 0
-1727 -1887 0
-1727 -1888 0
-1727 -1889 0
-1727 -1890 0
-1728 -1731 0
-1728 -1733 0
-1728 -1734 0
-1728 -1736 0
-1728 -1737 0
-1728 -1738 0
-1728 -1739 0
-1728 -1740 0
-1728 -1881 0
-1728 -1883 0
-1728 -1884 0
-1728 -1886 0
-1728 -1887 0
-1728 -1888 0
-1728 -1889 0
-1728 -1890 0
-1729 -1731 0
-1729 -1732 0
-1729 -1733 0
-1729 -1734 0
-1729 -1735 0
-1729 -1736 0
-1729 -1737 0
-1729 -1738 0
-1729 -1739 0
-1729 -1881 0
-1729 -1882 0
-1729 -1883 0
-1729 -1885 0
-1729 -1886 0
-1729 -1887 0
-1729 -1888 0
-1729 -1889 0
-1730 -1732 0
-1730 -1733 0
-1730 -1734 0
-1730 -1735 0
-1730 -1736 0
-1730 -1737 0
-1730 -1738 0
-1730 -1739 0
-1730 -1740 0
-1730 -1882 0
-1730 -1883 0
-1730 -1884 0
-1730 -1885 0
-1730 -1886 0
-1730 -1887 0
-1730 -1888 0
-1730 -1889 0
-1730 -1890 0
-1731 -1741 0
-1731 -1743 0
-1731 -1744 0
-1731 -1746 0
-1731 -1747 0
-1731 -1748 0
-1731 -1749 0
-1731 -1750 0
-1731 -1891 0
-1731 -1893 0
-1731 -1894 0
-1731 -1896 0
-1731 -1897 0
-1731 -1898 0
-1731 -1899 0
-1731 -1900 0
-1732 -1741 0
-1732 -1742 0
-1732 -1744 0
-1732 -1745 0
-1732 -1746 0
-1732 -1747 0
-1732 -1748 0
-1732 -1749 0
-1732 -1750 0
-1732 -1891 0
-1732 -1892 0
-1732 -1893 0
-1732 -1894 0
-1732 -1895 0
-1732 -1897 0
-1732 -1898 0
-1732 -1899 0
-1732 -1900 0
-1733 -1741 0
-1733 -1742 0
-1733 -1743 0
-1733 -1745 0
-1733 -1746 0
-1733 -1747 0
-1733 -1748 0
-1733 -1749 0
-1733 -1750 0
-1733 -1891 0
-1733 -1892 0
-1733 -1893 0
-1733 -1894 0
-1733 -1895 0
-1733 -1896 0
-1733 -1898 0
-1733 -1899 0
-1733 -1900 0
-1734 -1742 0
-1734 -1743 0
-1734 -1744 0
-1734 -1745 0
-1734 -1746 0
-1734 -1747 0
-1734 -1748 0
-1734 -1749 0
-1734 -1750 0
-1734 -1891 0
-1734 -1892 0
-1734 -1893 0
-1734 -1894 0
-1734 -1895 0
-1734 -1896 0
-1734 -1897 0
-1734 -1899 0
-1734 -1900 0
-1735 -1741 0
-1735 -1742 0
-1735 -1743 0
-1735 -1744 0
-1735 -1745 0
-1735 -1747 0
-1735 -1748 0
-1735 -1750 0
-1735 -1891 0
-1735 -1892 0
-1735 -1894 0
-1735 -1895 0
-1735 -1896 0
-1735 -1897 0
-1735 -1898 0
-1735 -1900 0
-1736 -1741 0
-1736 -1742 0
-1736 -1743 0
-1736 -1744 0
-1736 -1745 0
-1736 -1746 0
-1736 -1748 0
-1736 -1749 0
-1736 -1750 0
-1736 -1891 0
-1736 -1892 0
-1736 -1893 0
-1736 -1895 0
-1736 -1896 0
-1736 -1897 0
-1736 -1898 0
-1736 -1899 0
-1737 -1741 0
-1737 -1742 0
-1737 -1743 0
-1737 -1744 0
-1737 -1745 0
-1737 -1746 0
-1737 -1747 0
-1737 -1749 0
-1737 -1750 0
-1737 -1892 0
-1737 -1893 0
-1737 -1894 0
-1737 -1895 0
-1737 -1896 0
-1737 -1897 0
-1737 -1898 0
-1737 -1899 0
-1737 -1900 0
-1738 -1741 0
-1738 -1743 0
-1738 -1744 0
-1738 -1746 0
-1738 -1747 0
-1738 -1748 0
-1738 -1749 0
-1738 -1750 0
-1738 -1891 0
-1738 -1893 0
-1738 -1894 0
-1738 -1896 0
-1738 -1897 0
-1738 -1898 0
-1738 -1899 0
-1738 -1900 0
-1739 -1741 0
-1739 -1742 0
-1739 -1743 0
-1739 -1744 0
-1739 -1745 0
-1739 -1746 0
-1739 -1747 0
-1739 -1748 0
-1739 -1749 0
-1739 -1891 0
-1739 -1892 0
-1739 -1893 0
-1739 -1895 0
-1739 -1896 0
-1739 -1897 0
-1739 -1898 0
-1739 -1899 0
-1740 -1742 0
-1740 -1743 0
-1740 -1744 0
-1740 -1745 0
-1740 -1746 0
-1740 -1747 0
-1740 -1748 0
-1740 -1749 0
-1740 -1750 0
-1740 -1892 0
-1740 -1893 0
-1740 -1894 0
-1740 -1895 0
-1740 -1896 0
-1740 -1897 0
-1740 -1898 0
-1740 -1899 0
-1740 -1900 0
-1741 -1751 0
-1741 -1753 0
-1741 -1754 0
-1741 -1756 0
-1741 -1757 0
-1741 -1758 0
-1741 -1759 0
-1741 -1760 0
-1741 -1901 0
-1741 -1903 0
-1741 -1904 0
-1741 -1906 0
-1741 -1907 0
-1741 -1908 0
-1741 -1909 0
-1741 -1910 0
-1742 -1751 0
-1742 -1752 0
-1742 -1754 0
-1742 -1755 0
-1742 -1756 0
-1742 -1757 0
-1742 -1758 0
-1742 -1759 0
-1742 -1760 0
-1742 -1901 0
-1742 -1902 0
-1742 -1903 0
-1742 -1904 0
-1742 -1905 0
-1742 -1907 0
-1742 -1908 0
-1742 -1909 0
-1742 -1910 0
-1743 -1751 0
-1743 -1752 0
-1743 -1753 0
-1743 -1755 0
-1743 -1756 0
-1743 -1757 0
-1743 -1758 0
-1743 -1759 0
-1743 -1760 0
-1743 -1901 0
-1743 -1902 0
-1743 -1903 0
-1743 -1904 0
-1743 -1905 0
-1743 -1906 0
-1743 -1908 0
-1743 -1909 0
-1743 -1910 0
-1744 -1752 0
-1744 -1753 0
-1744 -1754 0
-1744 -1755 0
-1744 -1756 0
-1744 -1757 0
-1744 -1758 0
-1744 -1759 0
-1744 -1760 0
-1744 -1901 0
-1744 -1902 0
-1744 -1903 0
-1744 -1904 0
-1744 -1905 0
-1744 -1906 0
-1744 -1907 0
-1744 -1909 0
-1744 -1910 0
-1745 -1751 0
-1745 -1752 0
-1745 -1753 0
-1745 -1754 0
-1745 -1755 0
-1745 -1757 0
-1745 -1758 0
-1745 -1760 0
-1745 -1901 0
-1745 -1902 0
-1745 -1904 0
-1745 -1905 0
-1745 -1906 0
-1745 -1907 0
-1745 -1908 0
-1745 -1910 0
-1746 -1751 0
-1746 -1752 0
-1746 -1753 0
-1746 -1754 0
-1746 -1755 0
-1746 -1756 0
-1746 -1758 0
-1746 -1759 0
-1746 -1760 0
-1746 -1901 0
-1746 -1902 0
-1746 -1903 0
-1746 -1905 0
-1746 -1906 0
-1746 -1907 0
-1746 -1908 0
-1746 -1909 0
-1747 -1751 0
-1747 -1752 0
-1747 -1753 0
-1747 -1754 0
-1747 -1755 0
-1747 -1756 0
-1747 -1757 0
-1747 -1759 0
-1747 -1760 0
-1747 -1902 0
-1747 -1903 0
-1747 -1904 0
-1747 -1905 0
-1747 -1906 0
-1747 -1907 0
-1747 -1908 0
-1747 -1909 0
-1747 -1910 0
-1748 -1751 0
-1748 -1753 0
-1748 -1754 0
-1748 -1756 0
-1748 -1757 0
-1748 -1758 0
-1748 -1759 0
-1748 -1760 0
-1748 -1901 0
-1748 -1903 0
-1748 -1904 0
-1748 -1906 0
-1748 -1907 0
-1748 -1908 0
-1748 -1909 0
-1748 -1910 0
-1749 -1751 0
-1749 -1752 0
-1749 -1753 0
-1749 -1754 0
-1749 -1755 0
-1749 -1756 0
-1749 -1757 0
-1749 -1758 0
-1749 -1759 0
-1749 -1901 0
-1749 -1902 0
-1749 -1903 0
-1749 -1905 0
-1749 -1906 0
-1749 -1907 0
-1749 -1908 0
-1749 -1909 0
-1750 -1752 0
-1750 -1753 0
-1750 -1754 0
-1750 -1755 0
-1750 -1756 0
-1750 -1757 0
-1750 -1758 0
-1750 -1759 0
-1750 -1760 0
-1750 -1902 0
-1750 -1903 0
-1750 -1904 0
-1750 -1905 0
-1750 -1906 0
-1750 -1907 0
-1750 -1908 0
-1750 -1909 0
-1750 -1910 0
-1751 -1911 0
-1751 -1913 0
-1751 -1914 0
-1751 -1916 0
-1751 -1917 0
-1751 -1918 0
-1751 -1919 0
-1751 -1920 0
-1752 -1911 0
-1752 -1912 0
-1752 -1913 0
-1752 -1914 0
-1752 -1915 0
-1752 -1917 0
-1752 -1918 0
-1752 -1919 0
-1752 -1920 0
-1753 -1911 0
-1753 -1912 0
-1753 -1913 0
-1753 -1914 0
-1753 -1915 0
-1753 -1916 0
-1753 -1918 0
-1753 -1919 0
-1753 -1920 0
-1754 -1911 0
-1754 -1912 0
-1754 -1913 0
-1754 -1914 0
-1754 -1915 0
-1754 -1916 0
-1754 -1917 0
-1754 -1919 0
-1754 -1920 0
-1755 -1911 0
-1755 -1912 0
-1755 -1914 0
-1755 -1915 0
-1755 -1916 0
-1755 -1917 0
-1755 -1918 0
-1755 -1920 0
-1756 -1911 0
-1756 -1912 0
-1756 -1913 0
-1756 -1915 0
-1756 -1916 0
-1756 -1917 0
-1756 -1918 0
-1756 -1919 0
-1757 -1912 0
-1757 -1913 0
-1757 -1914 0
-1757 -1915 0
-1757 -1916 0
-1757 -1917 0
-1757 -1918 0
-1757 -1919 0
-1757 -1920 0
-1758 -1911 0
-1758 -1913 0
-1758 -1914 0
-1758 -1916 0
-1758 -1917 0
-1758 -1918 0
-1758 -1919 0
-1758 -1920 0
-1759 -1911 0
-1759 -1912 0
-1759 -1913 0
-1759 -1915 0
-1759 -1916 0
-1759 -1917 0
-1759 -1918 0
-1759 -1919 0
-1760 -1912 0
-1760 -1913 0
-1760 -1914 0
-1760 -1915 0
-1760 -1916 0
-1760 -1917 0
-1760 -1918 0
-1760 -1919 0
-1760 -1920 0
-1761 -1771 0
-1761 -1773 0
-1761 -1774 0
-1761 -1776 0
-1761 -1777 0
-1761 -1778 0
-1761 -1779 0
-1761 -1780 0
-1761 -1921 0
-1761 -1923 0
-1761 -1924 0
-1761 -1926 0
-1761 -1927 0
-1761 -1928 0
-1761 -1929 0
-1761 -1930 0
-1762 -1771 0
-1762 -1772 0
-1762 -1774 0
-1762 -1775 0
-1762 -1776 0
-1762 -1777 0
-1762 -1778 0
-1762 -1779 0
-1762 -1780 0
-1762 -1921 0
-1762 -1922 0
-1762 -1923 0
-1762 -1924 0
-1762 -1925 0
-1762 -1927 0
-1762 -1928 0
-1762 -1929 0
-1762 -1930 0
-1763 -1771 0
-1763 -1772 0
-1763 -1773 0
-1763 -1775 0
-1763 -1776 0
-1763 -1777 0
-1763 -1778 0
-1763 -1779 0
-1763 -1780 0
-1763 -1921 0
-1763 -1922 0
-1763 -1923 0
-1763 -1924 0
-1763 -1925 0
-1763 -1926 0
-1763 -1928 0
-1763 -1929 0
-1763 -1930 0
-1764 -1772 0
-1764 -1773 0
-1764 -1774 0
-1764 -1775 0
-1764 -1776 0
-1764 -1777 0
-1764 -1778 0
-1764 -1779 0
-1764 -1780 0
-1764 -1921 0
-1764 -1922 0
-1764 -1923 0
-1764 -1924 0
-1764 -1925 0
-1764 -1926 0
-1764 -1927 0
-1764 -1929 0
-1764 -1930 0
-1765 -1771 0
-1765 -1772 0
-1765 -1773 0
-1765 -1774 0
-1765 -1775 0
-1765 -1777 0
-1765 -1778 0
-1765 -1780 0
-1765 -1921 0
-1765 -1922 0
-1765 -1924 0
-1765 -1925 0
-1765 -1926 0
-1765 -1927 0
-1765 -1928 0
-1765 -1930 0
-1766 -1771 0
-1766 -1772 0
-1766 -1773 0
-1766 -1774 0
-1766 -1775 0
-1766 -1776 0
-1766 -1778 0
-1766 -1779 0
-1766 -1780 0
-1766 -1921 0
-1766 -1922 0
-1766 -1923 0
-1766 -1925 0
-1766 -1926 0
-1766 -1927 0
-1766 -1928 0
-1766 -1929 0
-1767 -1771 0
-1767 -1772 0
-1767 -1773 0
-1767 -1774 0
-1767 -1775 0
-1767 -1776 0
-1767 -1777 0
-1767 -1779 0
-1767 -1780 0
-1767 -1922 0
-1767 -1923 0
-1767 -1924 0
-1767 -1925 0
-1767 -1926 0
-1767 -1927 0
-1767 -1928 0
-1767 -1929 0
-1767 -1930 0
-1768 -1771 0
-1768 -1773 0
-1768 -1774 0
-1768 -1776 0
-1768 -1777 0
-1768 -1778 0
-1768 -1779 0
-1768 -1780 0
-1768 -1921 0
-1768 -1923 0
-1768 -1924 0
-1768 -1926 0
-1768 -1927 0
-1768 -1928 0
-1768 -1929 0
-1768 -1930 0
-1769 -1771 0
-1769 -1772 0
-1769 -1773 0
-1769 -1774 0
-1769 -1775 0
-1769 -1776 0
-1769 -1777 0
-1769 -1778 0
-1769 -1779 0
-1769 -1921 0
-1769 -1922 0
-1769 -1923 0
-1769 -1925 0
-1769 -1926 0
-1769 -1927 0
-1769 -1928 0
-1769 -1929 0
-1770 -1772 0
-1770 -1773 0
-1770 -1774 0
-1770 -1775 0
-1770 -1776 0
-1770 -1777 0
-1770 -1778 0
-1770 -1779 0
-1770 -1780 0
-1770 -1922 0
-1770 -1923 0
-1770 -1924 0
-1770 -1925 0
-1770 -1926 0
-1770 -1927 0
-1770 -1928 0
-1770 -1929 0
-1770 -1930 0
-1771 -1781 0
-1771 -1783 0
-1771 -1784 0
-1771 -1786 0
-1771 -1787 0
-1771 -1788 0
-1771 -1789 0
-1771 -1790 0
-1771 -1931 0
-1771 -1933 0
-1771 -1934 0
-1771 -1936 0
-1771 -1937 0
-1771 -1938 0
-1771 -1939 0
-1771 -1940 0
-1772 -1781 0
-1772 -1782 0
-1772 -1784 0
-1772 -1785 0
-1772 -1786 0
-1772 -1787 0
-1772 -1788 0
-1772 -1789 0
-1772 -1790 0
-1772 -1931 0
-1772 -1932 0
-1772 -1933 0
-1772 -1934 0
-1772 -1935 0
-1772 -1937 0
-1772 -1938 0
-1772 -1939 0
-1772 -1940 0
-1773 -1781 0
-1773 -1782 0
-1773 -1783 0
-1773 -1785 0
-1773 -1786 0
-1773 -1787 0
-1773 -1788 0
-1773 -1789 0
-1773 -1790 0
-1773 -1931 0
-1773 -1932 0
-1773 -1933 0
-1773 -1934 0
-1773 -1935 0
-1773 -1936 0
-1773 -1938 0
-1773 -1939 0
-1773 -1940 0
-1774 -1782 0
-1774 -1783 0
-1774 -1784 0
-1774 -1785 0
-1774 -1786 0
-1774 -1787 0
-1774 -1788 0
-1774 -1789 0
-1774 -1790 0
-1774 -1931 0
-1774 -1932 0
-1774 -1933 0
-1774 -1934 0
-1774 -1935 0
-1774 -1936 0
-1774 -1937 0
-1774 -1939 0
-1774 -1940 0
-1775 -1781 0
-1775 -1782 0
-1775 -1783 0
-1775 -1784 0
-1775 -1785 0
-1775 -1787 0
-1775 -1788 0
-1775 -1790 0
-1775 -1931 0
-1775 -1932 0
-1775 -1934 0
-1775 -1935 0
-1775 -1936 0
-1775 -1937 0
-1775 -1938 0
-1775 -1940 0
-1776 -1781 0
-1776 -1782 0
-1776 -1783 0
-1776 -1784 0
-1776 -1785 0
-1776 -1786 0
-1776 -1788 0
-1776 -1789 0
-1776 -1790 0
-1776 -1931 0
-1776 -1932 0
-1776 -1933 0
-1776 -1935 0
-1776 -1936 0
-1776 -1937 0
-1776 -1938 0
-1776 -1939 0
-1777 -1781 0
-1777 -1782 0
-1777 -1783 0
-1777 -1784 0
-1777 -1785 0
-1777 -1786 0
-1777 -1787 0
-1777 -1789 0
-1777 -1790 0
-1777 -1932 0
-1777 -1933 0
-1777 -1934 0
-1777 -1935 0
-1777 -1936 0
-1777 -1937 0
-1777 -1938 0
-1777 -1939 0
-1777 -1940 0
-1778 -1781 0
-1778 -1783 0
-1778 -1784 0
-1778 -1786 0
-1778 -1787 0
-1778 -1788 0
-1778 -1789 0
-1778 -1790 0
-1778 -1931 0
-1778 -1933 0
-1778 -1934 0
-1778 -1936 0
-1778 -1937 0
-1778 -1938 0
-1778 -1939 0
-1778 -1940 0
-1779 -1781 0
-1779 -1782 0
-1779 -1783 0
-1779 -1784 0
-1779 -1785 0
-1779 -1786 0
-1779 -1787 0
-1779 -1788 0
-1779 -1789 0
-1779 -1931 0
-1779 -1932 0
-1779 -1933 0
-1779 -1935 0
-1779 -1936 0
-1779 -1937 0
-1779 -1938 0
-1779 -1939 0
-1780 -1782 0
-1780 -1783 0
-1780 -1784 0
-1780 -1785 0
-1780 -1786 0
-1780 -1787 0
-1780 -1788 0
-1780 -1789 0
-1780 -1790 0
-1780 -1932 0
-1780 -1933 0
-1780 -1934 0
-1780 -1935 0
-1780 -1936 0
-1780 -1937 0
-1780 -1938 0
-1780 -1939 0
-1780 -1940 0
-1781 -1791 0
-1781 -1793 0
-1781 -1794 0
-1781 -1796 0
-1781 -1797 0
-1781 -1798 0
-1781 -1799 0
-1781 -1800 0
-1781 -1941 0
-1781 -1943 0
-1781 -1944 0
-1781 -1946 0
-1781 -1947 0
-1781 -1948 0
-1781 -1949 0
-1781 -1950 0
-1782 -1791 0
-1782 -1792 0
-1782 -1794 0
-1782 -1795 0
-1782 -1796 0
-1782 -1797 0
-1782 -1798 0
-1782 -1799 0
-1782 -1800 0
-1782 -1941 0
-1782 -1942 0
-1782 -1943 0
-1782 -1944 0
-1782 -1945 0
-1782 -1947 0
-1782 -1948 0
-1782 -1949 0
-1782 -1950 0
-1783 -1791 0
-1783 -1792 0
-1783 -1793 0
-1783 -1795 0
-1783 -1796 0
-1783 -1797 0
-1783 -1798 0
-1783 -1799 0
-1783 -1800 0
-1783 -1941 0
-1783 -1942 0
-1783 -1943 0
-1783 -1944 0
-1783 -1945 0
-1783 -1946 0
-1783 -1948 0
-1783 -1949 0
-1783 -1950 0
-1784 -1792 0
-1784 -1793 0
-1784 -1794 0
-1784 -1795 0
-1784 -1796 0
-1784 -1797 0
-1784 -1798 0
-1784 -1799 0
-1784 -1800 0
-1784 -1941 0
-1784 -1942 0
-1784 -1943 0
-1784 -1944 0
-1784 -1945 0
-1784 -1946 0
-1784 -1947 0
-1784 -1949 0
-1784 -1950 0
-1785 -1791 0
-1785 -1792 0
-1785 -1793 0
-1785 -1794 0
-1785 -1795 0
-1785 -1797 0
-1785 -1798 0
-1785 -1800 0
-1785 -1941 0
-1785 -1942 0
-1785 -1944 0
-1785 -1945 0
-1785 -1946 0
-1785 -1947 0
-1785 -1948 0
-1785 -1950 0
-1786 -1791 0
-1786 -1792 0
-1786 -1793 0
-1786 -1794 0
-1786 -1795 0
-1786 -1796 0
-1786 -1798 0
-1786 -1799 0
-1786 -1800 0
-1786 -1941 0
-1786 -1942 0
-1786 -1943 0
-1786 -1945 0
-1786 -1946 0
-1786 -1947 0
-1786 -1948 0
-1786 -1949 0
-1787 -1791 0
-1787 -1792 0
-1787 -1793 0
-1787 -1794 0
-1787 -1795 0
-1787 -1796 0
-1787 -1797 0
-1787 -1799 0
-1787 -1800 0
-1787 -1942 0
-1787 -1943 0
-1787 -1944 0
-1787 -1945 0
-1787 -1946 0
-1787 -1947 0
-1787 -1948 0
-1787 -1949 0
-1787 -1950 0
-1788 -1791 0
-1788 -1793 0
-1788 -1794 0
-1788 -1796 0
-1788 -1797 0
-1788 -1798 0
-1788 -1799 0
-1788 -1800 0
-1788 -1941 0
-1788 -1943 0
-1788 -1944 0
-1788 -1946 0
-1788 -1947 0
-1788 -1948 0
-1788 -1949 0
-1788 -1950 0
-1789 -1791 0
-1789 -1792 0
-1789 -1793 0
-1789 -1794 0
-1789 -1795 0
-1789 -1796 0
-1789 -1797 0
-1789 -1798 0
-1789 -1799 0
-1789 -1941 0
-1789 -1942 0
-1789 -1943 0
-1789 -1945 0
-1789 -1946 0
-1789 -1947 0
-1789 -1948 0
-1789 -1949 0
-1790 -1792 0
-1790 -1793 0
-1790 -1794 0
-1790 -1795 0
-1790 -1796 0
-1790 -1797 0
-1790 -1798 0
-1790 -1799 0
-1790 -1800 0
-1790 -1942 0
-1790 -1943 0
-1790 -1944 0
-1790 -1945 0
-1790 -1946 0
-1790 -1947 0
-1790 -1948 0
-1790 -1949 0
-1790 -1950 0
-1791 -1801 0
-1791 -1803 0
-1791 -1804 0
-1791 -1806 0
-1791 -1807 0
-1791 -1808 0
-1791 -1809 0
-1791 -1810 0
-1791 -1951 0
-1791 -1953 0
-1791 -1954 0
-1791 -1956 0
-1791 -1957 0
-1791 -1958 0
-1791 -1959 0
-1791 -1960 0
-1792 -1801 0
-1792 -1802 0
-1792 -1804 0
-1792 -1805 0
-1792 -1806 0
-1792 -1807 0
-1792 -1808 0
-1792 -1809 0
-1792 -1810 0
-1792 -1951 0
-1792 -1952 0
-1792 -1953 0
-1792 -1954 0
-1792 -1955 0
-1792 -1957 0
-1792 -1958 0
-1792 -1959 0
-1792 -1960 0
-1793 -1801 0
-1793 -1802 0
-1793 -1803 0
-1793 -1805 0
-1793 -1806 0
-1793 -1807 0
-1793 -1808 0
-1793 -1809 0
-1793 -1810 0
-1793 -1951 0
-1793 -1952 0
-1793 -1953 0
-1793 -1954 0
-1793 -1955 0
-1793 -1956 0
-1793 -1958 0
-1793 -1959 0
-1793 -1960 0
-1794 -1802 0
-1794 -1803 0
-1794 -1804 0
-1794 -1805 0
-1794 -1806 0
-1794 -1807 0
-1794 -1808 0
-1794 -1809 0
-1794 -1810 0
-1794 -1951 0
-1794 -1952 0
-1794 -1953 0
-1794 -1954 0
-1794 -1955 0
-1794 -1956 0
-1794 -1957 0
-1794 -1959 0
-1794 -1960 0
-1795 -1801 0
-1795 -1802 0
-1795 -1803 0
-1795 -1804 0
-1795 -1805 0
-1795 -1807 0
-1795 -1808 0
-1795 -1810 0
-1795 -1951 0
-1795 -1952 0
-1795 -1954 0
-1795 -1955 0
-1795 -1956 0
-1795 -1957 0
-1795 -1958 0
-1795 -1960 0
-1796 -1801 0
-1796 -1802 0
-1796 -1803 0
-1796 -1804 0
-1796 -1805 0
-1796 -1806 0
-1796 -1808 0
-1796 -1809 0
-1796 -1810 0
-1796 -1951 0
-1796 -1952 0
-1796 -1953 0
-1796 -1955 0
-1796 -1956 0
-1796 -1957 0
-1796 -1958 0
-1796 -1959 0
-1797 -1801 0
-1797 -1802 0
-1797 -1803 0
-1797 -1804 0
-1797 -1805 0
-1797 -1806 0
-1797 -1807 0
-1797 -1809 0
-1797 -1810 0
-1797 -1952 0
-1797 -1953 0
-1797 -1954 0
-1797 -1955 0
-1797 -1956 0
-1797 -1957 0
-1797 -1958 0
-1797 -1959 0
-1797 -1960 0
-1798 -1801 0
-1798 -1803 0
-1798 -1804 0
-1798 -1806 0
-1798 -1807 0
-1798 -1808 0
-1798 -1809 0
-1798 -1810 0
-1798 -1951 0
-1798 -1953 0
-1798 -1954 0
-1798 -1956 0
-1798 -1957 0
-1798 -1958 0
-1798 -1959 0
-1798 -1960 0
-1799 -1801 0
-1799 -1802 0
-1799 -1803 0
-1799 -1804 0
-1799 -1805 0
-1799 -1806 0
-1799 -1807 0
-1799 -1808 0
-1799 -1809 0
-1799 -1951 0
-1799 -1952 0
-1799 -1953 0
-1799 -1955 0
-1799 -1956 0
-1799 -1957 0
-1799 -1958 0
-1799 -1959 0
-1800 -1802 0
-1800 -1803 0
-1800 -1804 0
-1800 -1805 0
-1800 -1806 0
-1800 -1807 0
-1800 -1808 0
-1800 -1809 0
-1800 -1810 0
-1800 -1952 0
-1800 -1953 0
-1800 -1954 0
-1800 -1955 0
-1800 -1956 0
-1800 -1957 0
-1800 -1958 0
-1800 -1959 0
-1800 -1960 0
-1801 -1811 0
-1801 -1813 0
-1801 -1814 0
-1801 -1816 0
-1801 -1817 0
-1801 -1818 0
-1801 -1819 0
-1801 -1820 0
-1801 -1961 0
-1801 -1963 0
-1801 -1964 0
-1801 -1966 0
-1801 -1967 0
-1801 -1968 0
-1801 -1969 0
-1801 -1970 0
-1802 -1811 0
-1802 -1812 0
-1802 -1814 0
-1802 -1815 0
-1802 -1816 0
-1802 -1817 0
-1802 -1818 0
-1802 -1819 0
-1802 -1820 0
-1802 -1961 0
-1802 -1962 0
-1802 -1963 0
-1802 -1964 0
-1802 -1965 0
-1802 -1967 0
-1802 -1968 0
-1802 -1969 0
-1802 -1970 0
-1803 -1811 0
-1803 -1812 0
-1803 -1813 0
-1803 -1815 0
-1803 -1816 0
-1803 -1817 0
-1803 -1818 0
-1803 -1819 0
-1803 -1820 0
-1803 -1961 0
-1803 -1962 0
-1803 -1963 0
-1803 -1964 0
-1803 -1965 0
-1803 -1966 0
-1803 -1968 0
-1803 -1969 0
-1803 -1970 0
-1804 -1812 0
-1804 -1813 0
-1804 -1814 0
-1804 -1815 0
-1804 -1816 0
-1804 -1817 0
-1804 -1818 0
-1804 -1819 0
-1804 -1820 0
-1804 -1961 0
-1804 -1962 0
-1804 -1963 0
-1804 -1964 0
-1804 -1965 0
-1804 -1966 0
-1804 -1967 0
-1804 -1969 0
-1804 -1970 0
-1805 -1811 0
-1805 -1812 0
-1805 -1813 0
-1805 -1814 0
-1805 -1815 0
-1805 -1817 0
-1805 -1818 0
-1805 -1820 0
-1805 -1961 0
-1805 -1962 0
-1805 -1964 0
-1805 -1965 0
-1805 -1966 0
-1805 -1967 0
-1805 -1968 0
-1805 -1970 0
-1806 -1811 0
-1806 -1812 0
-1806 -1813 0
-1806 -1814 0
-1806 -1815 0
-1806 -1816 0
-1806 -1818 0
-1806 -1819 0
-1806 -1820 0
-1806 -1961 0
-1806 -1962 0
-1806 -1963 0
-1806 -1965 0
-1806 -1966 0
-1806 -1967 0
-1806 -1968 0
-1806 -1969 0
-1807 -1811 0
-1807 -1812 0
-1807 -1813 0
-1807 -1814 0
-1807 -1815 0
-1807 -1816 0
-1807 -1817 0
-1807 -1819 0
-1807 -1820 0
-1807 -1962 0
-1807 -1963 0
-1807 -1964 0
-1807 -1965 0
-1807 -1966 0
-1807 -1967 0
-1807 -1968 0
-1807 -1969 0
-1807 -1970 0
-1808 -1811 0
-1808 -1813 0
-1808 -1814 0
-1808 -1816 0
-1808 -1817 0
-1808 -1818 0
-1808 -1819 0
-1808 -1820 0
-1808 -1961 0
-1808 -1963 0
-1808 -1964 0
-1808 -1966 0
-1808 -1967 0
-1808 -1968 0
-1808 -1969 0
-1808 -1970 0
-1809 -1811 0
-1809 -1812 0
-1809 -1813 0
-1809 -1814 0
-1809 -1815 0
-1809 -1816 0
-1809 -1817 0
-1809 -1818 0
-1809 -1819 0
-1809 -1961 0
-1809 -1962 0
-1809 -1963 0
-1809 -1965 0
-1809 -1966 0
-1809 -1967 0
-1809 -1968 0
-1809 -1969 0
-1810 -1812 0
-1810 -1813 0
-1810 -1814 0
-1810 -1815 0
-1810 -1816 0
-1810 -1817 0
-1810 -1818 0
-1810 -1819 0
-1810 -1820 0
-1810 -1962 0
-1810 -1963 0
-1810 -1964 0
-1810 -1965 0
-1810 -1966 0
-1810 -1967 0
-1810 -1968 0
-1810 -1969 0
-1810 -1970 0
-1811 -1821 0
-1811 -1823 0
-1811 -1824 0
-1811 -1826 0
-1811 -1827 0
-1811 -1828 0
-1811 -1829 0
-1811 -1830 0
-1811 -1971 0
-1811 -1973 0
-1811 -1974 0
-1811 -1976 0
-1811 -1977 0
-1811 -1978 0
-1811 -1979 0
-1811 -1980 0
-1812 -1821 0
-1812 -1822 0
-1812 -1824 0
-1812 -1825 0
-1812 -1826 0
-1812 -1827 0
-1812 -1828 0
-1812 -1829 0
-1812 -1830 0
-1812 -1971 0
-1812 -1972 0
-1812 -1973 0
-1812 -1974 0
-1812 -1975 0
-1812 -1977 0
-1812 -1978 0
-1812 -1979 0
-1812 -1980 0
-1813 -1821 0
-1813 -1822 0
-1813 -1823 0
-1813 -1825 0
-1813 -1826 0
-1813 -1827 0
-1813 -1828 0
-1813 -1829 0
-1813 -1830 0
-1813 -1971 0
-1813 -1972 0
-1813 -1973 0
-1813 -1974 0
-1813 -1975 0
-1813 -1976 0
-1813 -1978 0
-1813 -1979 0
-1813 -1980 0
-1814 -1822 0
-1814 -1823 0
-1814 -1824 0
-1814 -1825 0
-1814 -1826 0
-1814 -1827 0
-1814 -1828 0
-1814 -1829 0
-1814 -1830 0
-1814 -1971 0
-1814 -1972 0
-1814 -1973 0
-1814 -1974 0
-1814 -1975 0
-1814 -1976 0
-1814 -1977 0
-1814 -1979 0
-1814 -1980 0
-1815 -1821 0
-1815 -1822 0
-1815 -1823 0
-1815 -1824 0
-1815 -1825 0
-1815 -1827 0
-1815 -1828 0
-1815 -1830 0
-1815 -1971 0
-1815 -1972 0
-1815 -1974 0
-1815 -1975 0
-1815 -1976 0
-1815 -1977 0
-1815 -1978 0
-1815 -1980 0
-1816 -1821 0
-1816 -1822 0
-1816 -1823 0
-1816 -1824 0
-1816 -1825 0
-1816 -1826 0
-1816 -1828 0
-1816 -1829 0
-1816 -1830 0
-1816 -1971 0
-1816 -1972 0
-1816 -1973 0
-1816 -1975 0
-1816 -1976 0
-1816 -1977 0
-1816 -1978 0
-1816 -1979 0
-1817 -1821 0
-1817 -1822 0
-1817 -1823 0
-1817 -1824 0
-1817 -1825 0
-1817 -1826 0
-1817 -1827 0
-1817 -1829 0
-1817 -1830 0
-1817 -1972 0
-1817 -1973 0
-1817 -1974 0
-1817 -1975 0
-1817 -1976 0
-1817 -1977 0
-1817 -1978 0
-1817 -1979 0
-1817 -1980 0
-1818 -1821 0
-1818 -1823 0
-1818 -1824 0
-1818 -1826 0
-1818 -1827 0
-1818 -1828 0
-1818 -1829 0
-1818 -1830 0
-1818 -1971 0
-1818 -1973 0
-1818 -1974 0
-1818 -1976 0
-1818 -1977 0
-1818 -1978 0
-1818 -1979 0
-1818 -1980 0
-1819 -1821 0
-1819 -1822 0
-1819 -1823 0
-1819 -1824 0
-1819 -1825 0
-1819 -1826 0
-1819 -1827 0
-1819 -1828 0
-1819 -1829 0
-1819 -1971 0
-1819 -1972 0
-1819 -1973 0
-1819 -1975 0
-1819 -1976 0
-1819 -1977 0
-1819 -1978 0
-1819 -1979 0
-1820 -1822 0
-1820 -1823 0
-1820 -1824 0
-1820 -1825 0
-1820 -1826 0
-1820 -1827 0
-1820 -1828 0
-1820 -1829 0
-1820 -1830 0
-1820 -1972 0
-1820 -1973 0
-1820 -1974 0
-1820 -1975 0
-1820 -1976 0
-1820 -1977 0
-1820 -1978 0
-1820 -1979 0
-1820 -1980 0
-1821 -1831 0
-1821 -1833 0
-1821 -1834 0
-1821 -1836 0
-1821 -1837 0
-1821 -1838 0
-1821 -1839 0
-1821 -1840 0
-1821 -1981 0
-1821 -1983 0
-1821 -1984 0
-1821 -1986 0
-1821 -1987 0
-1821 -1988 0
-1821 -1989 0
-1821 -1990 0
-1822 -1831 0
-1822 -1832 0
-1822 -1834 0
-1822 -1835 0
-1822 -1836 0
-1822 -1837 0
-1822 -1838 0
-1822 -1839 0
-1822 -1840 0
-1822 -1981 0
-1822 -1982 0
-1822 -1983 0
-1822 -1984 0
-1822 -1985 0
-1822 -1987 0
-1822 -1988 0
-1822 -1989 0
-1822 -1990 0
-1823 -1831 0
-1823 -1832 0
-1823 -1833 0
-1823 -1835 0
-1823 -1836 0
-1823 -1837 0
-1823 -1838 0
-1823 -1839 0
-1823 -1840 0
-1823 -1981 0
-1823 -1982 0
-1823 -1983 0
-1823 -1984 0
-1823 -1985 0
-1823 -1986 0
-1823 -1988 0
-1823 -1989 0
-1823 -1990 0
-1824 -1832 0
-1824 -1833 0
-1824 -1834 0
-1824 -1835 0
-1824 -1836 0
-1824 -1837 0
-1824 -1838 0
-1824 -1839 0
-1824 -1840 0
-1824 -1981 0
-1824 -1982 0
-1824 -1983 0
-1824 -1984 0
-1824 -1985 0
-1824 -1986 0
-1824 -1987 0
-1824 -1989 0
-1824 -1990 0
-1825 -1831 0
-1825 -1832 0
-1825 -1833 0
-1825 -1834 0
-1825 -1835 0
-1825 -1837 0
-1825 -1838 0
-1825 -1840 0
-1825 -1981 0
-1825 -1982 0
-1825 -1984 0
-1825 -1985 0
-1825 -1986 0
-1825 -1987 0
-1825 -1988 0
-1825 -1990 0
-1826 -1831 0
-1826 -1832 0
-1826 -1833 0
-1826 -1834 0
-1826 -1835 0
-1826 -1836 0
-1826 -1838 0
-1826 -1839 0
-1826 -1840 0
-1826 -1981 0
-1826 -1982 0
-1826 -1983 0
-1826 -1985 0
-1826 -1986 0
-1826 -1987 0
-1826 -1988 0
-1826 -1989 0
-1827 -1831 0
-1827 -1832 0
-1827 -1833 0
-1827 -1834 0
-1827 -1835 0
-1827 -1836 0
-1827 -1837 0
-1827 -1839 0
-1827 -1840 0
-1827 -1982 0
-1827 -1983 0
-1827 -1984 0
-1827 -1985 0
-1827 -1986 0
-1827 -1987 0
-1827 -1988 0
-1827 -1989 0
-1827 -1990 0
-1828 -1831 0
-1828 -1833 0
-1828 -1834 0
-1828 -1836 0
-1828 -1837 0
-1828 -1838 0
-1828 -1839 0
-1828 -1840 0
-1828 -1981 0
-1828 -1983 0
-1828 -1984 0
-1828 -1986 0
-1828 -1987 0
-1828 -1988 0
-1828 -1989 0
-1828 -1990 0
-1829 -1831 0
-1829 -1832 0
-1829 -1833 0
-1829 -1834 0
-1829 -1835 0
-1829 -1836 0
-1829 -1837 0
-1829 -1838 0
-1829 -1839 0
-1829 -1981 0
-1829 -1982 0
-1829 -1983 0
-1829 -1985 0
-1829 -1986 0
-1829 -1987 0
-1829 -1988 0
-1829 -1989 0
-1830 -1832 0
-1830 -1833 0
-1830 -1834 0
-1830 -1835 0
-1830 -1836 0
-1830 -1837 0
-1830 -1838 0
-1830 -1839 0
-1830 -1840 0
-1830 -1982 0
-1830 -1983 0
-1830 -1984 0
-1830 -1985 0
-1830 -1986 0
-1830 -1987 0
-1830 -1988 0
-1830 -1989 0
-1830 -1990 0
-1831 -1841 0
-1831 -1843 0
-1831 -1844 0
-1831 -1846 0
-1831 -1847 0
-1831 -1848 0
-1831 -1849 0
-1831 -1850 0
-1831 -1991 0
-1831 -1993 0
-1831 -1994 0
-1831 -1996 0
-1831 -1997 0
-1831 -1998 0
-1831 -1999 0
-1831 -2000 0
-1832 -1841 0
-1832 -1842 0
-1832 -1844 0
-1832 -1845 0
-1832 -1846 0
-1832 -1847 0
-1832 -1848 0
-1832 -1849 0
-1832 -1850 0
-1832 -1991 0
-1832 -1992 0
-1832 -1993 0
-1832 -1994 0
-1832 -1995 0
-1832 -1997 0
-1832 -1998 0
-1832 -1999 0
-1832 -2000 0
-1833 -1841 0
-1833 -1842 0
-1833 -1843 0
-1833 -1845 0
-1833 -1846 0
-1833 -1847 0
-1833 -1848 0
-1833 -1849 0
-1833 -1850 0
-1833 -1991 0
-1833 -1992 0
-1833 -1993 0
-1833 -1994 0
-1833 -1995 0
-1833 -1996 0
-1833 -1998 0
-1833 -1999 0
-1833 -2000 0
-1834 -1842 0
-1834 -1843 0
-1834 -1844 0
-1834 -1845 0
-1834 -1846 0
-1834 -1847 0
-1834 -1848 0
-1834 -1849 0
-1834 -1850 0
-1834 -1991 0
-1834 -1992 0
-1834 -1993 0
-1834 -1994 0
-1834 -1995 0
-1834 -1996 0
-1834 -1997 0
-1834 -1999 0
-1834 -2000 0
-1835 -1841 0
-1835 -1842 0
-1835 -1843 0
-1835 -1844 0
-1835 -1845 0
-1835 -1847 0
-1835 -1848 0
-1835 -1850 0
-1835 -1991 0
-1835 -1992 0
-1835 -1994 0
-1835 -1995 0
-1835 -1996 0
-1835 -1997 0
-1835 -1998 0
-1835 -2000 0
-1836 -1841 0
-1836 -1842 0
-1836 -1843 0
-1836 -1844 0
-1836 -1845 0
-1836 -1846 0
-1836 -1848 0
-1836 -1849 0
-1836 -1850 0
-1836 -1991 0
-1836 -1992 0
-1836 -1993 0
-1836 -1995 0
-1836 -1996 0
-1836 -1997 0
-1836 -1998 0
-1836 -1999 0
-1837 -1841 0
-1837 -1842 0
-1837 -1843 0
-1837 -1844 0
-1837 -1845 0
-1837 -1846 0
-1837 -1847 0
-1837 -1849 0
-1837 -1850 0
-1837 -1992 0
-1837 -1993 0
-1837 -1994 0
-1837 -1995 0
-1837 -1996 0
-1837 -1997 0
-1837 -1998 0
-1837 -1999 0
-1837 -2000 0
-1838 -1841 0
-1838 -1843 0
-1838 -1844 0
-1838 -1846 0
-1838 -1847 0
-1838 -1848 0
-1838 -1849 0
-1838 -1850 0
-1838 -1991 0
-1838 -1993 0
-1838 -1994 0
-1838 -1996 0
-1838 -1997 0
-1838 -1998 0
-1838 -1999 0
-1838 -2000 0
-1839 -1841 0
-1839 -1842 0
-1839 -1843 0
-1839 -1844 0
-1839 -1845 0
-1839 -1846 0
-1839 -1847 0
-1839 -1848 0
-1839 -1849 0
-1839 -1991 0
-1839 -1992 0
-1839 -1993 0
-1839 -1995 0
-1839 -1996 0
-1839 -1997 0
-1839 -1998 0
-1839 -1999 0
-1840 -1842 0
-1840 -1843 0
-1840 -1844 0
-1840 -1845 0
-1840 -1846 0
-1840 -1847 0
-1840 -1848 0
-1840 -1849 0
-1840 -1850 0
-1840 -1992 0
-1840 -1993 0
-1840 -1994 0
-1840 -1995 0
-1840 -1996 0
-1840 -1997 0
-1840 -1998 0
-1840 -1999 0
-1840 -2000 0
-1841 -1851 0
-1841 -1853 0
-1841 -1854 0
-1841 -1856 0
-1841 -1857 0
-1841 -1858 0
-1841 -1859 0
-1841 -1860 0
-1841 -2001 0
-1841 -2003 0
-1841 -2004 0
-1841 -2006 0
-1841 -2007 0
-1841 -2008 0
-1841 -2009 0
-1841 -2010 0
-1842 -1851 0
-1842 -1852 0
-1842 -1854 0
-1842 -1855 0
-1842 -1856 0
-1842 -1857 0
-1842 -1858 0
-1842 -1859 0
-1842 -1860 0
-1842 -2001 0
-1842 -2002 0
-1842 -2003 0
-1842 -2004 0
-1842 -2005 0
-1842 -2007 0
-1842 -2008 0
-1842 -2009 0
-1842 -2010 0
-1843 -1851 0
-1843 -1852 0
-1843 -1853 0
-1843 -1855 0
-1843 -1856 0
-1843 -1857 0
-1843 -1858 0
-1843 -1859 0
-1843 -1860 0
-1843 -2001 0
-1843 -2002 0
-1843 -2003 0
-1843 -2004 0
-1843 -2005 0
-1843 -2006 0
-1843 -2008 0
-1843 -2009 0
-1843 -2010 0
-1844 -1852 0
-1844 -1853 0
-1844 -1854 0
-1844 -1855 0
-1844 -1856 0
-1844 -1857 0
-1844 -1858 0
-1844 -1859 0
-1844 -1860 0
-1844 -2001 0
-1844 -2002 0
-1844 -2003 0
-1844 -2004 0
-1844 -2005 0
-1844 -2006 0
-1844 -2007 0
-1844 -2009 0
-1844 -2010 0
-1845 -1851 0
-1845 -1852 0
-1845 -1853 0
-1845 -1854 0
-1845 -1855 0
-1845 -1857 0
-1845 -1858 0
-1845 -1860 0
-1845 -2001 0
-1845 -2002 0
-1845 -2004 0
-1845 -2005 0
-1845 -2006 0
-1845 -2007 0
-1845 -2008 0
-1845 -2010 0
-1846 -1851 0
-1846 -1852 0
-1846 -1853 0
-1846 -1854 0
-1846 -1855 0
-1846 -1856 0
-1846 -1858 0
-1846 -1859 0
-1846 -1860 0
-1846 -2001 0
-1846 -2002 0
-1846 -2003 0
-1846 -2005 0
-1846 -2006 0
-1846 -2007 0
-1846 -2008 0
-1846 -2009 0
-1847 -1851 0
-1847 -1852 0
-1847 -1853 0
-1847 -1854 0
-1847 -1855 0
-1847 -1856 0
-1847 -1857 0
-1847 -1859 0
-1847 -1860 0
-1847 -2002 0
-1847 -2003 0
-1847 -2004 0
-1847 -2005 0
-1847 -2006 0
-1847 -2007 0
-1847 -2008 0
-1847 -2009 0
-1847 -2010 0
-1848 -1851 0
-1848 -1853 0
-1848 -1854 0
-1848 -1856 0
-1848 -1857 0
-1848 -1858 0
-1848 -1859 0
-1848 -1860 0
-1848 -2001 0
-1848 -2003 0
-1848 -2004 0
-1848 -2006 0
-1848 -2007 0
-1848 -2008 0
-1848 -2009 0
-1848 -2010 0
-1849 -1851 0
-1849 -1852 0
-1849 -1853 0
-1849 -1854 0
-1849 -1855 0
-1849 -1856 0
-1849 -1857 0
-1849 -1858 0
-1849 -1859 0
-1849 -2001 0
-1849 -2002 0
-1849 -2003 0
-1849 -2005 0
-1849 -2006 0
-1849 -2007 0
-1849 -2008 0
-1849 -2009 0
-1850 -1852 0
-1850 -1853 0
-1850 -1854 0
-1850 -1855 0
-1850 -1856 0
-1850 -1857 0
-1850 -1858 0
-1850 -1859 0
-1850 -1860 0
-1850 -2002 0
-1850 -2003 0
-1850 -2004 0
-1850 -2005 0
-1850 -2006 0
-1850 -2007 0
-1850 -2008 0
-1850 -2009 0
-1850 -2010 0
-1851 -1861 0
-1851 -1863 0
-1851 -1864 0
-1851 -1866 0
-1851 -1867 0
-1851 -1868 0
-1851 -1869 0
-1851 -1870 0
-1851 -2011 0
-1851 -2013 0
-1851 -2014 0
-1851 -2016 0
-1851 -2017 0
-1851 -2018 0
-1851 -2019 0
-1851 -2020 0
-1852 -1861 0
-1852 -1862 0
-1852 -1864 0
-1852 -1865 0
-1852 -1866 0
-1852 -1867 0
-1852 -1868 0
-1852 -1869 0
-1852 -1870 0
-1852 -2011 0
-1852 -2012 0
-1852 -2013 0
-1852 -2014 0
-1852 -2015 0
-1852 -2017 0
-1852 -2018 0
-1852 -2019 0
-1852 -2020 0
-1853 -1861 0
-1853 -1862 0
-1853 -1863 0
-1853 -1865 0
-1853 -1866 0
-1853 -1867 0
-1853 -1868 0
-1853 -1869 0
-1853 -1870 0
-1853 -2011 0
-1853 -2012 0
-1853 -2013 0
-1853 -2014 0
-1853 -2015 0
-1853 -2016 0
-1853 -2018 0
-1853 -2019 0
-1853 -2020 0
-1854 -1862 0
-1854 -1863 0
-1854 -1864 0
-1854 -1865 0
-1854 -1866 0
-1854 -1867 0
-1854 -1868 0
-1854 -1869 0
-1854 -1870 0
-1854 -2011 0
-1854 -2012 0
-1854 -2013 0
-1854 -2014 0
-1854 -2015 0
-1854 -2016 0
-1854 -2017 0
-1854 -2019 0
-1854 -2020 0
-1855 -1861 0
-1855 -1862 0
-1855 -1863 0
-1855 -1864 0
-1855 -1865 0
-1855 -1867 0
-1855 -1868 0
-1855 -1870 0
-1855 -2011 0
-1855 -2012 0
-1855 -2014 0
-1855 -2015 0
-1855 -2016 0
-1855 -2017 0
-1855 -2018 0
-1855 -2020 0
-1856 -1861 0
-1856 -1862 0
-1856 -1863 0
-1856 -1864 0
-1856 -1865 0
-1856 -1866 0
-1856 -1868 0
-1856 -1869 0
-1856 -1870 0
-1856 -2011 0
-1856 -2012 0
-1856 -2013 0
-1856 -2015 0
-1856 -2016 0
-1856 -2017 0
-1856 -2018 0
-1856 -2019 0
-1857 -1861 0
-1857 -1862 0
-1857 -1863 0
-1857 -1864 0
-1857 -1865 0
-1857 -1866 0
-1857 -1867 0
-1857 -1869 0
-1857 -1870 0
-1857 -2012 0
-1857 -2013 0
-1857 -2014 0
-1857 -2015 0
-1857 -2016 0
-1857 -2017 0
-1857 -2018 0
-1857 -2019 0
-1857 -2020 0
-1858 -1861 0
-1858 -1863 0
-1858 -1864 0
-1858 -1866 0
-1858 -1867 0
-1858 -1868 0
-1858 -1869 0
-1858 -1870 0
-1858 -2011 0
-1858 -2013 0
-1858 -2014 0
-1858 -2016 0
-1858 -2017 0
-1858 -2018 0
-1858 -2019 0
-1858 -2020 0
-1859 -1861 0
-1859 -1862 0
-1859 -1863 0
-1859 -1864 0
-1859 -1865 0
-1859 -1866 0
-1859 -1867 0
-1859 -1868 0
-1859 -1869 0
-1859 -2011 0
-1859 -2012 0
-1859 -2013 0
-1859 -2015 0
-1859 -2016 0
-1859 -2017 0
-1859 -2018 0
-1859 -2019 0
-1860 -1862 0
-1860 -1863 0
-1860 -1864 0
-1860 -1865 0
-1860 -1866 0
-1860 -1867 0
-1860 -1868 0
-1860 -1869 0
-1860 -1870 0
-1860 -2012 0
-1860 -2013 0
-1860 -2014 0
-1860 -2015 0
-1860 -2016 0
-1860 -2017 0
-1860 -2018 0
-1860 -2019 0
-1860 -2020 0
-1861 -1871 0
-1861 -1873 0
-1861 -1874 0
-1861 -1876 0
-1861 -1877 0
-1861 -1878 0
-1861 -1879 0
-1861 -1880 0
-1861 -2021 0
-1861 -2023 0
-1861 -2024 0
-1861 -2026 0
-1861 -2027 0
-1861 -2028 0
-1861 -2029 0
-1861 -2030 0
-1862 -1871 0
-1862 -1872 0
-1862 -1874 0
-1862 -1875 0
-1862 -1876 0
-1862 -1877 0
-1862 -1878 0
-1862 -1879 0
-1862 -1880 0
-1862 -2021 0
-1862 -2022 0
-1862 -2023 0
-1862 -2024 0
-1862 -2025 0
-1862 -2027 0
-1862 -2028 0
-1862 -2029 0
-1862 -2030 0
-1863 -1871 0
-1863 -1872 0
-1863 -1873 0
-1863 -1875 0
-1863 -1876 0
-1863 -1877 0
-1863 -1878 0
-1863 -1879 0
-1863 -1880 0
-1863 -2021 0
-1863 -2022 0
-1863 -2023 0
-1863 -2024 0
-1863 -2025 0
-1863 -2026 0
-1863 -2028 0
-1863 -2029 0
-1863 -2030 0
-1864 -1872 0
-1864 -1873 0
-1864 -1874 0
-1864 -1875 0
-1864 -1876 0
-1864 -1877 0
-1864 -1878 0
-1864 -1879 0
-1864 -1880 0
-1864 -2021 0
-1864 -2022 0
-1864 -2023 0
-1864 -2024 0
-1864 -2025 0
-1864 -2026 0
-1864 -2027 0
-1864 -2029 0
-1864 -2030 0
-1865 -1871 0
-1865 -1872 0
-1865 -1873 0
-1865 -1874 0
-1865 -1875 0
-1865 -1877 0
-1865 -1878 0
-1865 -1880 0
-1865 -2021 0
-1865 -2022 0
-1865 -2024 0
-1865 -2025 0
-1865 -2026 0
-1865 -2027 0
-1865 -2028 0
-1865 -2030 0
-1866 -1871 0
-1866 -1872 0
-1866 -1873 0
-1866 -1874 0
-1866 -1875 0
-1866 -1876 0
-1866 -1878 0
-1866 -1879 0
-1866 -1880 0
-1866 -2021 0
-1866 -2022 0
-1866 -2023 0
-1866 -2025 0
-1866 -2026 0
-1866 -2027 0
-1866 -2028 0
-1866 -2029 0
-1867 -1871 0
-1867 -1872 0
-1867 -1873 0
-1867 -1874 0
-1867 -1875 0
-1867 -1876 0
-1867 -1877 0
-1867 -1879 0
-1867 -1880 0
-1867 -2022 0
-1867 -2023 0
-1867 -2024 0
-1867 -2025 0
-1867 -2026 0
-1867 -2027 0
-1867 -2028 0
-1867 -2029 0
-1867 -2030 0
-1868 -1871 0
-1868 -1873 0
-1868 -1874 0
-1868 -1876 0
-1868 -1877 0
-1868 -1878 0
-1868 -1879 0
-1868 -1880 0
-1868 -2021 0
-1868 -2023 0
-1868 -2024 0
-1868 -2026 0
-1868 -2027 0
-1868 -2028 0
-1868 -2029 0
-1868 -2030 0
-1869 -1871 0
-1869 -1872 0
-1869 -1873 0
-1869 -1874 0
-1869 -1875 0
-1869 -1876 0
-1869 -1877 0
-1869 -1878 0
-1869 -1879 0
-1869 -2021 0
-1869 -2022 0
-1869 -2023 0
-1869 -2025 0
-1869 -2026 0
-1869 -2027 0
-1869 -2028 0
-1869 -2029 0
-1870 -1872 0
-1870 -1873 0
-1870 -1874 0
-1870 -1875 0
-1870 -1876 0
-1870 -1877 0
-1870 -1878 0
-1870 -1879 0
-1870 -1880 0
-1870 -2022 0
-1870 -2023 0
-1870 -2024 0
-1870 -2025 0
-1870 -2026 0
-1870 -2027 0
-1870 -2028 0
-1870 -2029 0
-1870 -2030 0
-1871 -1881 0
-1871 -1883 0
-1871 -1884 0
-1871 -1886 0
-1871 -1887 0
-1871 -1888 0
-1871 -1889 0
-1871 -1890 0
-1871 -2031 0
-1871 -2033 0
-1871 -2034 0
-1871 -2036 0
-1871 -2037 0
-1871 -2038 0
-1871 -2039 0
-1871 -2040 0
-1872 -1881 0
-1872 -1882 0
-1872 -1884 0
-1872 -1885 0
-1872 -1886 0
-1872 -1887 0
-1872 -1888 0
-1872 -1889 0
-1872 -1890 0
-1872 -2031 0
-1872 -2032 0
-1872 -2033 0
-1872 -2034 0
-1872 -2035 0
-1872 -2037 0
-1872 -2038 0
-1872 -2039 0
-1872 -2040 0
-1873 -1881 0
-1873 -1882 0
-1873 -1883 0
-1873 -1885 0
-1873 -1886 0
-1873 -1887 0
-1873 -1888 0
-1873 -1889 0
-1873 -1890 0
-1873 -2031 0
-1873 -2032 0
-1873 -2033 0
-1873 -2034 0
-1873 -2035 0
-1873 -2036 0
-1873 -2038 0
-1873 -2039 0
-1873 -2040 0
-1874 -1882 0
-1874 -1883 0
-1874 -1884 0
-1874 -1885 0
-1874 -1886 0
-1874 -1887 0
-1874 -1888 0
-1874 -1889 0
-1874 -1890 0
-1874 -2031 0
-1874 -2032 0
-1874 -2033 0
-1874 -2034 0
-1874 -2035 0
-1874 -2036 0
-1874 -2037 0
-1874 -2039 0
-1874 -2040 0
-1875 -1881 0
-1875 -1882 0
-1875 -1883 0
-1875 -1884 0
-1875 -1885 0
-1875 -1887 0
-1875 -1888 0
-1875 -1890 0
-1875 -2031 0
-1875 -2032 0
-1875 -2034 0
-1875 -2035 0
-1875 -2036 0
-1875 -2037 0
-1875 -2038 0
-1875 -2040 0
-1876 -1881 0
-1876 -1882 0
-1876 -1883 0
-1876 -1884 0
-1876 -1885 0
-1876 -1886 0
-1876 -1888 0
-1876 -1889 0
-1876 -1890 0
-1876 -2031 0
-1876 -2032 0
-1876 -2033 0
-1876 -2035 0
-1876 -2036 0
-1876 -2037 0
-1876 -2038 0
-1876 -2039 0
-1877 -1881 0
-1877 -1882 0
-1877 -1883 0
-1877 -1884 0
-1877 -1885 0
-1877 -1886 0
-1877 -1887 0
-1877 -1889 0
-1877 -1890 0
-1877 -2032 0
-1877 -2033 0
-1877 -2034 0
-1877 -2035 0
-1877 -2036 0
-1877 -2037 0
-1877 -2038 0
-1877 -2039 0
-1877 -2040 0
-1878 -1881 0
-1878 -1883 0
-1878 -1884 0
-1878 -1886 0
-1878 -1887 0
-1878 -1888 0
-1878 -1889 0
-1878 -1890 0
-1878 -2031 0
-1878 -2033 0
-1878 -2034 0
-1878 -2036 0
-1878 -2037 0
-1878 -2038 0
-1878 -2039 0
-1878 -2040 0
-1879 -1881 0
-1879 -1882 0
-1879 -1883 0
-1879 -1884 0
-1879 -1885 0
-1879 -1886 0
-1879 -1887 0
-1879 -1888 0
-1879 -1889 0
-1879 -2031 0
-1879 -2032 0
-1879 -2033 0
-1879 -2035 0
-1879 -2036 0
-1879 -2037 0
-1879 -2038 0
-1879 -2039 0
-1880 -1882 0
-1880 -1883 0
-1880 -1884 0
-1880 -1885 0
-1880 -1886 0
-1880 -1887 0
-1880 -1888 0
-1880 -1889 0
-1880 -1890 0
-1880 -2032 0
-1880 -2033 0
-1880 -2034 0
-1880 -2035 0
-1880 -2036 0
-1880 -2037 0
-1880 -2038 0
-1880 -2039 0
-1880 -2040 0
-1881 -1891 0
-1881 -1893 0
-1881 -1894 0
-1881 -1896 0
-1881 -1897 0
-1881 -1898 0
-1881 -1899 0
-1881 -1900 0
-1881 -2041 0
-1881 -2043 0
-1881 -2044 0
-1881 -2046 0
-1881 -2047 0
-1881 -2048 0
-1881 -2049 0
-1881 -2050 0
-1882 -1891 0
-1882 -1892 0
-1882 -1894 0
-1882 -1895 0
-1882 -1896 0
-1882 -1897 0
-1882 -1898 0
-1882 -1899 0
-1882 -1900 0
-1882 -2041 0
-1882 -2042 0
-1882 -2043 0
-1882 -2044 0
-1882 -2045 0
-1882 -2047 0
-1882 -2048 0
-1882 -2049 0
-1882 -2050 0
-1883 -1891 0
-1883 -1892 0
-1883 -1893 0
-1883 -1895 0
-1883 -1896 0
-1883 -1897 0
-1883 -1898 0
-1883 -1899 0
-1883 -1900 0
-1883 -2041 0
-1883 -2042 0
-1883 -2043 0
-1883 -2044 0
-1883 -2045 0
-1883 -2046 0
-1883 -2048 0
-1883 -2049 0
-1883 -2050 0
-1884 -1892 0
-1884 -1893 0
-1884 -1894 0
-1884 -1895 0
-1884 -1896 0
-1884 -1897 0
-1884 -1898 0
-1884 -1899 0
-1884 -1900 0
-1884 -2041 0
-1884 -2042 0
-1884 -2043 0
-1884 -2044 0
-1884 -2045 0
-1884 -2046 0
-1884 -2047 0
-1884 -2049 0
-1884 -2050 0
-1885 -1891 0
-1885 -1892 0
-1885 -1893 0
-1885 -1894 0
-1885 -1895 0
-1885 -1897 0
-1885 -1898 0
-1885 -1900 0
-1885 -2041 0
-1885 -2042 0
-1885 -2044 0
-1885 -2045 0
-1885 -2046 0
-1885 -2047 0
-1885 -2048 0
-1885 -2050 0
-1886 -1891 0
-1886 -1892 0
-1886 -1893 0
-1886 -1894 0
-1886 -1895 0
-1886 -1896 0
-1886 -1898 0
-1886 -1899 0
-1886 -1900 0
-1886 -2041 0
-1886 -2042 0
-1886 -2043 0
-1886 -2045 0
-1886 -2046 0
-1886 -2047 0
-1886 -2048 0
-1886 -2049 0
-1887 -1891 0
-1887 -1892 0
-1887 -1893 0
-1887 -1894 0
-1887 -1895 0
-1887 -1896 0
-1887 -1897 0
-1887 -1899 0
-1887 -1900 0
-1887 -2042 0
-1887 -2043 0
-1887 -2044 0
-1887 -2045 0
-1887 -2046 0
-1887 -2047 0
-1887 -2048 0
-1887 -2049 0
-1887 -2050 0
-1888 -1891 0
-1888 -1893 0
-1888 -1894 0
-1888 -1896 0
-1888 -1897 0
-1888 -1898 0
-1888 -1899 0
-1888 -1900 0
-1888 -2041 0
-1888 -2043 0
-1888 -2044 0
-1888 -2046 0
-1888 -2047 0
-1888 -2048 0
-1888 -2049 0
-1888 -2050 0
-1889 -1891 0
-1889 -1892 0
-1889 -1893 0
-1889 -1894 0
-1889 -1895 0
-1889 -1896 0
-1889 -1897 0
-1889 -1898 0
-1889 -1899 0
-1889 -2041 0
-1889 -2042 0
-1889 -2043 0
-1889 -2045 0
-1889 -2046 0
-1889 -2047 0
-1889 -2048 0
-1889 -2049 0
-1890 -1892 0
-1890 -1893 0
-1890 -1894 0
-1890 -1895 0
-1890 -1896 0
-1890 -1897 0
-1890 -1898 0
-1890 -1899 0
-1890 -1900 0
-1890 -2042 0
-1890 -2043 0
-1890 -2044 0
-1890 -2045 0
-1890 -2046 0
-1890 -2047 0
-1890 -2048 0
-1890 -2049 0
-1890 -2050 0
-1891 -1901 0
-1891 -1903 0
-1891 -1904 0
-1891 -1906 0
-1891 -1907 0
-1891 -1908 0
-1891 -1909 0
-1891 -1910 0
-1891 -2051 0
-1891 -2053 0
-1891 -2054 0
-1891 -2056 0
-1891 -2057 0
-1891 -2058 0
-1891 -2059 0
-1891 -2060 0
-1892 -1901 0
-1892 -1902 0
-1892 -1904 0
-1892 -1905 0
-1892 -1906 0
-1892 -1907 0
-1892 -1908 0
-1892 -1909 0
-1892 -1910 0
-1892 -2051 0
-1892 -2052 0
-1892 -2053 0
-1892 -2054 0
-1892 -2055 0
-1892 -2057 0
-1892 -2058 0
-1892 -2059 0
-1892 -2060 0
-1893 -1901 0
-1893 -1902 0
-1893 -1903 0
-1893 -1905 0
-1893 -1906 0
-1893 -1907 0
-1893 -1908 0
-1893 -1909 0
-1893 -1910 0
-1893 -2051 0
-1893 -2052 0
-1893 -2053 0
-1893 -2054 0
-1893 -2055 0
-1893 -2056 0
-1893 -2058 0
-1893 -2059 0
-1893 -2060 0
-1894 -1902 0
-1894 -1903 0
-1894 -1904 0
-1894 -1905 0
-1894 -1906 0
-1894 -1907 0
-1894 -1908 0
-1894 -1909 0
-1894 -1910 0
-1894 -2051 0
-1894 -2052 0
-1894 -2053 0
-1894 -2054 0
-1894 -2055 0
-1894 -2056 0
-1894 -2057 0
-1894 -2059 0
-1894 -2060 0
-1895 -1901 0
-1895 -1902 0
-1895 -1903 0
-1895 -1904 0
-1895 -1905 0
-1895 -1907 0
-1895 -1908 0
-1895 -1910 0
-1895 -2051 0
-1895 -2052 0
-1895 -2054 0
-1895 -2055 0
-1895 -2056 0
-1895 -2057 0
-1895 -2058 0
-1895 -2060 0
-1896 -1901 0
-1896 -1902 0
-1896 -1903 0
-1896 -1904 0
-1896 -1905 0
-1896 -1906 0
-1896 -1908 0
-1896 -1909 0
-1896 -1910 0
-1896 -2051 0
-1896 -2052 0
-1896 -2053 0
-1896 -2055 0
-1896 -2056 0
-1896 -2057 0
-1896 -2058 0
-1896 -2059 0
-1897 -1901 0
-1897 -1902 0
-1897 -1903 0
-1897 -1904 0
-1897 -1905 0
-1897 -1906 0
-1897 -1907 0
-1897 -1909 0
-1897 -1910 0
-1897 -2052 0
-1897 -2053 0
-1897 -2054 0
-1897 -2055 0
-1897 -2056 0
-1897 -2057 0
-1897 -2058 0
-1897 -2059 0
-1897 -2060 0
-1898 -1901 0
-1898 -1903 0
-1898 -1904 0
-1898 -1906 0
-1898 -1907 0
-1898 -1908 0
-1898 -1909 0
-1898 -1910 0
-1898 -2051 0
-1898 -2053 0
-1898 -2054 0
-1898 -2056 0
-1898 -2057 0
-1898 -2058 0
-1898 -2059 0
-1898 -2060 0
-1899 -1901 0
-1899 -1902 0
-1899 -1903 0
-1899 -1904 0
-1899 -1905 0
-1899 -1906 0
-1899 -1907 0
-1899 -1908 0
-1899 -1909 0
-1899 -2051 0
-1899 -2052 0
-1899 -2053 0
-1899 -2055 0
-1899 -2056 0
-1899 -2057 0
-1899 -2058 0
-1899 -2059 0
-1900 -1902 0
-1900 -1903 0
-1900 -1904 0
-1900 -1905 0
-1900 -1906 0
-1900 -1907 0
-1900 -1908 0
-1900 -1909 0
-1900 -1910 0
-1900 -2052 0
-1900 -2053 0
-1900 -2054 0
-1900 -2055 0
-1900 -2056 0
-1900 -2057 0
-1900 -2058 0
-1900 -2059 0
-1900 -2060 0
-1901 -1911 0
-1901 -1913 0
-1901 -1914 0
-1901 -1916 0
-1901 -1917 0
-1901 -1918 0
-1901 -1919 0
-1901 -1920 0
-1901 -2061 0
-1901 -2063 0
-1901 -2064 0
-1901 -2066 0
-1901 -2067 0
-1901 -2068 0
-1901 -2069 0
-1901 -2070 0
-1902 -1911 0
-1902 -1912 0
-1902 -1914 0
-1902 -1915 0
-1902 -1916 0
-1902 -1917 0
-1902 -1918 0
-1902 -1919 0
-1902 -1920 0
-1902 -2061 0
-1902 -2062 0
-1902 -2063 0
-1902 -2064 0
-1902 -2065 0
-1902 -2067 0
-1902 -2068 0
-1902 -2069 0
-1902 -2070 0
-1903 -1911 0
-1903 -1912 0
-1903 -1913 0
-1903 -1915 0
-1903 -1916 0
-1903 -1917 0
-1903 -1918 0
-1903 -1919 0
-1903 -1920 0
-1903 -2061 0
-1903 -2062 0
-1903 -2063 0
-1903 -2064 0
-1903 -2065 0
-1903 -2066 0
-1903 -2068 0
-1903 -2069 0
-1903 -2070 0
-1904 -1912 0
-1904 -1913 0
-1904 -1914 0
-1904 -1915 0
-1904 -1916 0
-1904 -1917 0
-1904 -1918 0
-1904 -1919 0
-1904 -1920 0
-1904 -2061 0
-1904 -2062 0
-1904 -2063 0
-1904 -2064 0
-1904 -2065 0
-1904 -2066 0
-1904 -2067 0
-1904 -2069 0
-1904 -2070 0
-1905 -1911 0
-1905 -1912 0
-1905 -1913 0
-1905 -1914 0
-1905 -1915 0
-1905 -1917 0
-1905 -1918 0
-1905 -1920 0
-1905 -2061 0
-1905 -2062 0
-1905 -2064 0
-1905 -2065 0
-1905 -2066 0
-1905 -2067 0
-1905 -2068 0
-1905 -2070 0
-1906 -1911 0
-1906 -1912 0
-1906 -1913 0
-1906 -1914 0
-1906 -1915 0
-1906 -1916 0
-1906 -1918 0
-1906 -1919 0
-1906 -1920 0
-1906 -2061 0
-1906 -2062 0
-1906 -2063 0
-1906 -2065 0
-1906 -2066 0
-1906 -2067 0
-1906 -2068 0
-1906 -2069 0
-1907 -1911 0
-1907 -1912 0
-1907 -1913 0
-1907 -1914 0
-1907 -1915 0
-1907 -1916 0
-1907 -1917 0
-1907 -1919 0
-1907 -1920 0
-1907 -2062 0
-1907 -2063 0
-1907 -2064 0
-1907 -2065 0
-1907 -2066 0
-1907 -2067 0
-1907 -2068 0
-1907 -2069 0
-1907 -2070 0
-1908 -1911 0
-1908 -1913 0
-1908 -1914 0
-1908 -1916 0
-1908 -1917 0
-1908 -1918 0
-1908 -1919 0
-1908 -1920 0
-1908 -2061 0
-1908 -2063 0
-1908 -2064 0
-1908 -2066 0
-1908 -2067 0
-1908 -2068 0
-1908 -2069 0
-1908 -2070 0
-1909 -1911 0
-1909 -1912 0
-1909 -1913 0
-1909 -1914 0
-1909 -1915 0
-1909 -1916 0
-1909 -1917 0
-1909 -1918 0
-1909 -1919 0
-1909 -2061 0
-1909 -2062 0
-1909 -2063 0
-1909 -2065 0
-1909 -2066 0
-1909 -2067 0
-1909 -2068 0
-1909 -2069 0
-1910 -1912 0
-1910 -1913 0
-1910 -1914 0
-1910 -1915 0
-1910 -1916 0
-1910 -1917 0
-1910 -1918 0
-1910 -1919 0
-1910 -1920 0
-1910 -2062 0
-1910 -2063 0
-1910 -2064 0
-1910 -2065 0
-1910 -2066 0
-1910 -2067 0
-1910 -2068 0
-1910 -2069 0
-1910 -2070 0
-1911 -2071 0
-1911 -2073 0
-1911 -2074 0
-1911 -2076 0
-1911 -2077 0
-1911 -2078 0
-1911 -2079 0
-1911 -2080 0
-1912 -2071 0
-1912 -2072 0
-1912 -2073 0
-1912 -2074 0
-1912 -2075 0
-1912 -2077 0
-1912 -2078 0
-1912 -2079 0
-1912 -2080 0
-1913 -2071 0
-1913 -2072 0
-1913 -2073 0
-1913 -2074 0
-1913 -2075 0
-1913 -2076 0
-1913 -2078 0
-1913 -2079 0
-1913 -2080 0
-1914 -2071 0
-1914 -2072 0
-1914 -2073 0
-1914 -2074 0
-1914 -2075 0
-1914 -2076 0
-1914 -2077 0
-1914 -2079 0
-1914 -2080 0
-1915 -2071 0
-1915 -2072 0
-1915 -2074 0
-1915 -2075 0
-1915 -2076 0
-1915 -2077 0
-1915 -2078 0
-1915 -2080 0
-1916 -2071 0
-1916 -2072 0
-1916 -2073 0
-1916 -2075 0
-1916 -2076 0
-1916 -2077 0
-1916 -2078 0
-1916 -2079 0
-1917 -2072 0
-1917 -2073 0
-1917 -2074 0
-1917 -2075 0
-1917 -2076 0
-1917 -2077 0
-1917 -2078 0
-1917 -2079 0
-1917 -2080 0
-1918 -2071 0
-1918 -2073 0
-1918 -2074 0
-1918 -2076 0
-1918 -2077 0
-1918 -2078 0
-1918 -2079 0
-1918 -2080 0
-1919 -2071 0
-1919 -2072 0
-1919 -2073 0
-1919 -2075 0
-1919 -2076 0
-1919 -2077 0
-1919 -2078 0
-1919 -2079 0
-1920 -2072 0
-1920 -2073 0
-1920 -2074 0
-1920 -2075 0
-1920 -2076 0
-1920 -2077 0
-1920 -2078 0
-1920 -2079 0
-1920 -2080 0
-1921 -1931 0
-1921 -1933 0
-1921 -1934 0
-1921 -1936 0
-1921 -1937 0
-1921 -1938 0
-1921 -1939 0
-1921 -1940 0
-1921 -2081 0
-1921 -2083 0
-1921 -2084 0
-1921 -2086 0
-1921 -2087 0
-1921 -2088 0
-1921 -2089 0
-1921 -2090 0
-1922 -1931 0
-1922 -1932 0
-1922 -1934 0
-1922 -1935 0
-1922 -1936 0
-1922 -1937 0
-1922 -1938 0
-1922 -1939 0
-1922 -1940 0
-1922 -2081 0
-1922 -2082 0
-1922 -2083 0
-1922 -2084 0
-1922 -2085 0
-1922 -2087 0
-1922 -2088 0
-1922 -2089 0
-1922 -2090 0
-1923 -1931 0
-1923 -1932 0
-1923 -1933 0
-1923 -1935 0
-1923 -1936 0
-1923 -1937 0
-1923 -1938 0
-1923 -1939 0
-1923 -1940 0
-1923 -2081 0
-1923 -2082 0
-1923 -2083 0
-1923 -2084 0
-1923 -2085 0
-1923 -2086 0
-1923 -2088 0
-1923 -2089 0
-1923 -2090 0
-1924 -1932 0
-1924 -1933 0
-1924 -1934 0
-1924 -1935 0
-1924 -1936 0
-1924 -1937 0
-1924 -1938 0
-1924 -1939 0
-1924 -1940 0
-1924 -2081 0
-1924 -2082 0
-1924 -2083 0
-1924 -2084 0
-1924 -2085 0
-1924 -2086 0
-1924 -2087 0
-1924 -2089 0
-1924 -2090 0
-1925 -1931 0
-1925 -1932 0
-1925 -1933 0
-1925 -1934 0
-1925 -1935 0
-1925 -1937 0
-1925 -1938 0
-1925 -1940 0
-1925 -2081 0
-1925 -2082 0
-1925 -2084 0
-1925 -2085 0
-1925 -2086 0
-1925 -2087 0
-1925 -2088 0
-1925 -2090 0
-1926 -1931 0
-1926 -1932 0
-1926 -1933 0
-1926 -1934 0
-1926 -1935 0
-1926 -1936 0
-1926 -1938 0
-1926 -1939 0
-1926 -1940 0
-1926 -2081 0
-1926 -2082 0
-1926 -2083 0
-1926 -2085 0
-1926 -2086 0
-1926 -2087 0
-1926 -2088 0
-1926 -2089 0
-1927 -1931 0
-1927 -1932 0
-1927 -1933 0
-1927 -1934 0
-1927 -1935 0
-1927 -1936 0
-1927 -1937 0
-1927 -1939 0
-1927 -1940 0
-1927 -2082 0
-1927 -2083 0
-1927 -2084 0
-1927 -2085 0
-1927 -2086 0
-1927 -2087 0
-1927 -2088 0
-1927 -2089 0
-1927 -2090 0
-1928 -1931 0
-1928 -1933 0
-1928 -1934 0
-1928 -1936 0
-1928 -1937 0
-1928 -1938 0
-1928 -1939 0
-1928 -1940 0
-1928 -2081 0
-1928 -2083 0
-1928 -2084 0
-1928 -2086 0
-1928 -2087 0
-1928 -2088 0
-1928 -2089 0
-1928 -2090 0
-1929 -1931 0
-1929 -1932 0
-1929 -1933 0
-1929 -1934 0
-1929 -1935 0
-1929 -1936 0
-1929 -1937 0
-1929 -1938 0
-1929 -1939 0
-1929 -2081 0
-1929 -2082 0
-1929 -2083 0
-1929 -2085 0
-1929 -2086 0
-1929 -2087 0
-1929 -2088 0
-1929 -2089 0
-1930 -1932 0
-1930 -1933 0
-1930 -1934 0
-1930 -1935 0
-1930 -1936 0
-1930 -1937 0
-1930 -1938 0
-1930 -1939 0
-1930 -1940 0
-1930 -2082 0
-1930 -2083 0
-1930 -2084 0
-1930 -2085 0
-1930 -2086 0
-1930 -2087 0
-1930 -2088 0
-1930 -2089 0
-1930 -2090 0
-1931 -1941 0
-1931 -1943 0
-1931 -1944 0
-1931 -1946 0
-1931 -1947 0
-1931 -1948 0
-1931 -1949 0
-1931 -1950 0
-1931 -2091 0
-1931 -2093 0
-1931 -2094 0
-1931 -2096 0
-1931 -2097 0
-1931 -2098 0
-1931 -2099 0
-1931 -2100 0
-1932 -1941 0
-1932 -1942 0
-1932 -1944 0
-1932 -1945 0
-1932 -1946 0
-1932 -1947 0
-1932 -1948 0
-1932 -1949 0
-1932 -1950 0
-1932 -2091 0
-1932 -2092 0
-1932 -2093 0
-1932 -2094 0
-1932 -2095 0
-1932 -2097 0
-1932 -2098 0
-1932 -2099 0
-1932 -2100 0
-1933 -1941 0
-1933 -1942 0
-1933 -1943 0
-1933 -1945 0
-1933 -1946 0
-1933 -1947 0
-1933 -1948 0
-1933 -1949 0
-1933 -1950 0
-1933 -2091 0
-1933 -2092 0
-1933 -2093 0
-1933 -2094 0
-1933 -2095 0
-1933 -2096 0
-1933 -2098 0
-1933 -2099 0
-1933 -2100 0
-1934 -1942 0
-1934 -1943 0
-1934 -1944 0
-1934 -1945 0
-1934 -1946 0
-1934 -1947 0
-1934 -1948 0
-1934 -1949 0
-1934 -1950 0
-1934 -2091 0
-1934 -2092 0
-1934 -2093 0
-1934 -2094 0
-1934 -2095 0
-1934 -2096 0
-1934 -2097 0
-1934 -2099 0
-1934 -2100 0
-1935 -1941 0
-1935 -1942 0
-1935 -1943 0
-1935 -1944 0
-1935 -1945 0
-1935 -1947 0
-1935 -1948 0
-1935 -1950 0
-1935 -2091 0
-1935 -2092 0
-1935 -2094 0
-1935 -2095 0
-1935 -2096 0
-1935 -2097 0
-1935 -2098 0
-1935 -2100 0
-1936 -1941 0
-1936 -1942 0
-1936 -1943 0
-1936 -1944 0
-1936 -1945 0
-1936 -1946 0
-1936 -1948 0
-1936 -1949 0
-1936 -1950 0
-1936 -2091 0
-1936 -2092 0
-1936 -2093 0
-1936 -2095 0
-1936 -2096 0
-1936 -2097 0
-1936 -2098 0
-1936 -2099 0
-1937 -1941 0
-1937 -1942 0
-1937 -1943 0
-1937 -1944 0
-1937 -1945 0
-1937 -1946 0
-1937 -1947 0
-1937 -1949 0
-1937 -1950 0
-1937 -2092 0
-1937 -2093 0
-1937 -2094 0
-1937 -2095 0
-1937 -2096 0
-1937 -2097 0
-1937 -2098 0
-1937 -2099 0
-1937 -2100 0
-1938 -1941 0
-1938 -1943 0
-1938 -1944 0
-1938 -1946 0
-1938 -1947 0
-1938 -1948 0
-1938 -1949 0
-1938 -1950 0
-1938 -2091 0
-1938 -2093 0
-1938 -2094 0
-1938 -2096 0
-1938 -2097 0
-1938 -2098 0
-1938 -2099 0
-1938 -2100 0
-1939 -1941 0
-1939 -1942 0
-1939 -1943 0
-1939 -1944 0
-1939 -1945 0
-1939 -1946 0
-1939 -1947 0
-1939 -1948 0
-1939 -1949 0
-1939 -2091 0
-1939 -2092 0
-1939 -2093 0
-1939 -2095 0
-1939 -2096 0
-1939 -2097 0
-1939 -2098 0
-1939 -2099 0
-1940 -1942 0
-1940 -1943 0
-1940 -1944 0
-1940 -1945 0
-1940 -1946 0
-1940 -1947 0
-1940 -1948 0
-1940 -1949 0
-1940 -1950 0
-1940 -2092 0
-1940 -2093 0
-1940 -2094 0
-1940 -2095 0
-1940 -2096 0
-1940 -2097 0
-1940 -2098 0
-1940 -2099 0
-1940 -2100 0
-1941 -1951 0
-1941 -1953 0
-1941 -1954 0
-1941 -1956 0
-1941 -1957 0
-1941 -1958 0
-1941 -1959 0
-1941 -1960 0
-1941 -2101 0
-1941 -2103 0
-1941 -2104 0
-1941 -2106 0
-1941 -2107 0
-1941 -2108 0
-1941 -2109 0
-1941 -2110 0
-1942 -1951 0
-1942 -1952 0
-1942 -1954 0
-1942 -1955 0
-1942 -1956 0
-1942 -1957 0
-1942 -1958 0
-1942 -1959 0
-1942 -1960 0
-1942 -2101 0
-1942 -2102 0
-1942 -2103 0
-1942 -2104 0
-1942 -2105 0
-1942 -2107 0
-1942 -2108 0
-1942 -2109 0
-1942 -2110 0
-1943 -1951 0
-1943 -1952 0
-1943 -1953 0
-1943 -1955 0
-1943 -1956 0
-1943 -1957 0
-1943 -1958 0
-1943 -1959 0
-1943 -1960 0
-1943 -2101 0
-1943 -2102 0
-1943 -2103 0
-1943 -2104 0
-1943 -2105 0
-1943 -2106 0
-1943 -2108 0
-1943 -2109 0
-1943 -2110 0
-1944 -1952 0
-1944 -1953 0
-1944 -1954 0
-1944 -1955 0
-1944 -1956 0
-1944 -1957 0
-1944 -1958 0
-1944 -1959 0
-1944 -1960 0
-1944 -2101 0
-1944 -2102 0
-1944 -2103 0
-1944 -2104 0
-1944 -2105 0
-1944 -2106 0
-1944 -2107 0
-1944 -2109 0
-1944 -2110 0
-1945 -1951 0
-1945 -1952 0
-1945 -1953 0
-1945 -1954 0
-1945 -1955 0
-1945 -1957 0
-1945 -1958 0
-1945 -1960 0
-1945 -2101 0
-1945 -2102 0
-1945 -2104 0
-1945 -2105 0
-1945 -2106 0
-1945 -2107 0
-1945 -2108 0
-1945 -2110 0
-1946 -1951 0
-1946 -1952 0
-1946 -1953 0
-1946 -1954 0
-1946 -1955 0
-1946 -1956 0
-1946 -1958 0
-1946 -1959 0
-1946 -1960 0
-1946 -2101 0
-1946 -2102 0
-1946 -2103 0
-1946 -2105 0
-1946 -2106 0
-1946 -2107 0
-1946 -2108 0
-1946 -2109 0
-1947 -1951 0
-1947 -1952 0
-1947 -1953 0
-1947 -1954 0
-1947 -1955 0
-1947 -1956 0
-1947 -1957 0
-1947 -1959 0
-1947 -1960 0
-1947 -2102 0
-1947 -2103 0
-1947 -2104 0
-1947 -2105 0
-1947 -2106 0
-1947 -2107 0
-1947 -2108 0
-1947 -2109 0
-1947 -2110 0
-1948 -1951 0
-1948 -1953 0
-1948 -1954 0
-1948 -1956 0
-1948 -1957 0
-1948 -1958 0
-1948 -1959 0
-1948 -1960 0
-1948 -2101 0
-1948 -2103 0
-1948 -2104 0
-1948 -2106 0
-1948 -2107 0
-1948 -2108 0
-1948 -2109 0
-1948 -2110 0
-1949 -1951 0
-1949 -1952 0
-1949 -1953 0
-1949 -1954 0
-1949 -1955 0
-1949 -1956 0
-1949 -1957 0
-1949 -1958 0
-1949 -1959 0
-1949 -2101 0
-1949 -2102 0
-1949 -2103 0
-1949 -2105 0
-1949 -2106 0
-1949 -2107 0
-1949 -2108 0
-1949 -2109 0
-1950 -1952 0
-1950 -1953 0
-1950 -1954 0
-1950 -1955 0
-1950 -1956 0
-1950 -1957 0
-1950 -1958 0
-1950 -1959 0
-1950 -1960 0
-1950 -2102 0
-1950 -2103 0
-1950 -2104 0
-1950 -2105 0
-1950 -2106 0
-1950 -2107 0
-1950 -2108 0
-1950 -2109 0
-1950 -2110 0
-1951 -1961 0
-1951 -1963 0
-1951 -1964 0
-1951 -1966 0
-1951 -1967 0
-1951 -1968 0
-1951 -1969 0
-1951 -1970 0
-1951 -2111 0
-1951 -2113 0
-1951 -2114 0
-1951 -2116 0
-1951 -2117 0
-1951 -2118 0
-1951 -2119 0
-1951 -2120 0
-1952 -1961 0
-1952 -1962 0
-1952 -1964 0
-1952 -1965 0
-1952 -1966 0
-1952 -1967 0
-1952 -1968 0
-1952 -1969 0
-1952 -1970 0
-1952 -2111 0
-1952 -2112 0
-1952 -2113 0
-1952 -2114 0
-1952 -2115 0
-1952 -2117 0
-1952 -2118 0
-1952 -2119 0
-1952 -2120 0
-1953 -1961 0
-1953 -1962 0
-1953 -1963 0
-1953 -1965 0
-1953 -1966 0
-1953 -1967 0
-1953 -1968 0
-1953 -1969 0
-1953 -1970 0
-1953 -2111 0
-1953 -2112 0
-1953 -2113 0
-1953 -2114 0
-1953 -2115 0
-1953 -2116 0
-1953 -2118 0
-1953 -2119 0
-1953 -2120 0
-1954 -1962 0
-1954 -1963 0
-1954 -1964 0
-1954 -1965 0
-1954 -1966 0
-1954 -1967 0
-1954 -1968 0
-1954 -1969 0
-1954 -1970 0
-1954 -2111 0
-1954 -2112 0
-1954 -2113 0
-1954 -2114 0
-1954 -2115 0
-1954 -2116 0
-1954 -2117 0
-1954 -2119 0
-1954 -2120 0
-1955 -1961 0
-1955 -1962 0
-1955 -1963 0
-1955 -1964 0
-1955 -1965 0
-1955 -1967 0
-1955 -1968 0
-1955 -1970 0
-1955 -2111 0
-1955 -2112 0
-1955 -2114 0
-1955 -2115 0
-1955 -2116 0
-1955 -2117 0
-1955 -2118 0
-1955 -2120 0
-1956 -1961 0
-1956 -1962 0
-1956 -1963 0
-1956 -1964 0
-1956 -1965 0
-1956 -1966 0
-1956 -1968 0
-1956 -1969 0
-1956 -1970 0
-1956 -2111 0
-1956 -2112 0
-1956 -2113 0
-1956 -2115 0
-1956 -2116 0
-1956 -2117 0
-1956 -2118 0
-1956 -2119 0
-1957 -1961 0
-1957 -1962 0
-1957 -1963 0
-1957 -1964 0
-1957 -1965 0
-1957 -1966 0
-1957 -1967 0
-1957 -1969 0
-1957 -1970 0
-1957 -2112 0
-1957 -2113 0
-1957 -2114 0
-1957 -2115 0
-1957 -2116 0
-1957 -2117 0
-1957 -2118 0
-1957 -2119 0
-1957 -2120 0
-1958 -1961 0
-1958 -1963 0
-1958 -1964 0
-1958 -1966 0
-1958 -1967 0
-1958 -1968 0
-1958 -1969 0
-1958 -1970 0
-1958 -2111 0
-1958 -2113 0
-1958 -2114 0
-1958 -2116 0
-1958 -2117 0
-1958 -2118 0
-1958 -2119 0
-1958 -2120 0
-1959 -1961 0
-1959 -1962 0
-1959 -1963 0
-1959 -1964 0
-1959 -1965 0
-1959 -1966 0
-1959 -1967 0
-1959 -1968 0
-1959 -1969 0
-1959 -2111 0
-1959 -2112 0
-1959 -2113 0
-1959 -2115 0
-1959 -2116 0
-1959 -2117 0
-1959 -2118 0
-1959 -2119 0
-1960 -1962 0
-1960 -1963 0
-1960 -1964 0
-1960 -1965 0
-1960 -1966 0
-1960 -1967 0
-1960 -1968 0
-1960 -1969 0
-1960 -1970 0
-1960 -2112 0
-1960 -2113 0
-1960 -2114 0
-1960 -2115 0
-1960 -2116 0
-1960 -2117 0
-1960 -2118 0
-1960 -2119 0
-1960 -2120 0
-1961 -1971 0
-1961 -1973 0
-1961 -1974 0
-1961 -1976 0
-1961 -1977 0
-1961 -1978 0
-1961 -1979 0
-1961 -1980 0
-1961 -2121 0
-1961 -2123 0
-1961 -2124 0
-1961 -2126 0
-1961 -2127 0
-1961 -2128 0
-1961 -2129 0
-1961 -2130 0
-1962 -1971 0
-1962 -1972 0
-1962 -1974 0
-1962 -1975 0
-1962 -1976 0
-1962 -1977 0
-1962 -1978 0
-1962 -1979 0
-1962 -1980 0
-1962 -2121 0
-1962 -2122 0
-1962 -2123 0
-1962 -2124 0
-1962 -2125 0
-1962 -2127 0
-1962 -2128 0
-1962 -2129 0
-1962 -2130 0
-1963 -1971 0
-1963 -1972 0
-1963 -1973 0
-1963 -1975 0
-1963 -1976 0
-1963 -1977 0
-1963 -1978 0
-1963 -1979 0
-1963 -1980 0
-1963 -2121 0
-1963 -2122 0
-1963 -2123 0
-1963 -2124 0
-1963 -2125 0
-1963 -2126 0
-1963 -2128 0
-1963 -2129 0
-1963 -2130 0
-1964 -1972 0
-1964 -1973 0
-1964 -1974 0
-1964 -1975 0
-1964 -1976 0
-1964 -1977 0
-1964 -1978 0
-1964 -1979 0
-1964 -1980 0
-1964 -2121 0
-1964 -2122 0
-1964 -2123 0
-1964 -2124 0
-1964 -2125 0
-1964 -2126 0
-1964 -2127 0
-1964 -2129 0
-1964 -2130 0
-1965 -1971 0
-1965 -1972 0
-1965 -1973 0
-1965 -1974 0
-1965 -1975 0
-1965 -1977 0
-1965 -1978 0
-1965 -1980 0
-1965 -2121 0
-1965 -2122 0
-1965 -2124 0
-1965 -2125 0
-1965 -2126 0
-1965 -2127 0
-1965 -2128 0
-1965 -2130 0
-1966 -1971 0
-1966 -1972 0
-1966 -1973 0
-1966 -1974 0
-1966 -1975 0
-1966 -1976 0
-1966 -1978 0
-1966 -1979 0
-1966 -1980 0
-1966 -2121 0
-1966 -2122 0
-1966 -2123 0
-1966 -2125 0
-1966 -2126 0
-1966 -2127 0
-1966 -2128 0
-1966 -2129 0
-1967 -1971 0
-1967 -1972 0
-1967 -1973 0
-1967 -1974 0
-1967 -1975 0
-1967 -1976 0
-1967 -1977 0
-1967 -1979 0
-1967 -1980 0
-1967 -2122 0
-1967 -2123 0
-1967 -2124 0
-1967 -2125 0
-1967 -2126 0
-1967 -2127 0
-1967 -2128 0
-1967 -2129 0
-1967 -2130 0
-1968 -1971 0
-1968 -1973 0
-1968 -1974 0
-1968 -1976 0
-1968 -1977 0
-1968 -1978 0
-1968 -1979 0
-1968 -1980 0
-1968 -2121 0
-1968 -2123 0
-1968 -2124 0
-1968 -2126 0
-1968 -2127 0
-1968 -2128 0
-1968 -2129 0
-1968 -2130 0
-1969 -1971 0
-1969 -1972 0
-1969 -1973 0
-1969 -1974 0
-1969 -1975 0
-1969 -1976 0
-1969 -1977 0
-1969 -1978 0
-1969 -1979 0
-1969 -2121 0
-1969 -2122 0
-1969 -2123 0
-1969 -2125 0
-1969 -2126 0
-1969 -2127 0
-1969 -2128 0
-1969 -2129 0
-1970 -1972 0
-1970 -1973 0
-1970 -1974 0
-1970 -1975 0
-1970 -1976 0
-1970 -1977 0
-1970 -1978 0
-1970 -1979 0
-1970 -1980 0
-1970 -2122 0
-1970 -2123 0
-1970 -2124 0
-1970 -2125 0
-1970 -2126 0
-1970 -2127 0
-1970 -2128 0
-1970 -2129 0
-1970 -2130 0
-1971 -1981 0
-1971 -1983 0
-1971 -1984 0
-1971 -1986 0
-1971 -1987 0
-1971 -1988 0
-1971 -1989 0
-1971 -1990 0
-1971 -2131 0
-1971 -2133 0
-1971 -2134 0
-1971 -2136 0
-1971 -2137 0
-1971 -2138 0
-1971 -2139 0
-1971 -2140 0
-1972 -1981 0
-1972 -1982 0
-1972 -1984 0
-1972 -1985 0
-1972 -1986 0
-1972 -1987 0
-1972 -1988 0
-1972 -1989 0
-1972 -1990 0
-1972 -2131 0
-1972 -2132 0
-1972 -2133 0
-1972 -2134 0
-1972 -2135 0
-1972 -2137 0
-1972 -2138 0
-1972 -2139 0
-1972 -2140 0
-1973 -1981 0
-1973 -1982 0
-1973 -1983 0
-1973 -1985 0
-1973 -1986 0
-1973 -1987 0
-1973 -1988 0
-1973 -1989 0
-1973 -1990 0
-1973 -2131 0
-1973 -2132 0
-1973 -2133 0
-1973 -2134 0
-1973 -2135 0
-1973 -2136 0
-1973 -2138 0
-1973 -2139 0
-1973 -2140 0
-1974 -1982 0
-1974 -1983 0
-1974 -1984 0
-1974 -1985 0
-1974 -1986 0
-1974 -1987 0
-1974 -1988 0
-1974 -1989 0
-1974 -1990 0
-1974 -2131 0
-1974 -2132 0
-1974 -2133 0
-1974 -2134 0
-1974 -2135 0
-1974 -2136 0
-1974 -2137 0
-1974 -2139 0
-1974 -2140 0
-1975 -1981 0
-1975 -1982 0
-1975 -1983 0
-1975 -1984 0
-1975 -1985 0
-1975 -1987 0
-1975 -1988 0
-1975 -1990 0
-1975 -2131 0
-1975 -2132 0
-1975 -2134 0
-1975 -2135 0
-1975 -2136 0
-1975 -2137 0
-1975 -2138 0
-1975 -2140 0
-1976 -1981 0
-1976 -1982 0
-1976 -1983 0
-1976 -1984 0
-1976 -1985 0
-1976 -1986 0
-1976 -1988 0
-1976 -1989 0
-1976 -1990 0
-1976 -2131 0
-1976 -2132 0
-1976 -2133 0
-1976 -2135 0
-1976 -2136 0
-1976 -2137 0
-1976 -2138 0
-1976 -2139 0
-1977 -1981 0
-1977 -1982 0
-1977 -1983 0
-1977 -1984 0
-1977 -1985 0
-1977 -1986 0
-1977 -1987 0
-1977 -1989 0
-1977 -1990 0
-1977 -2132 0
-1977 -2133 0
-1977 -2134 0
-1977 -2135 0
-1977 -2136 0
-1977 -2137 0
-1977 -2138 0
-1977 -2139 0
-1977 -2140 0
-1978 -1981 0
-1978 -1983 0
-1978 -1984 0
-1978 -1986 0
-1978 -1987 0
-1978 -1988 0
-1978 -1989 0
-1978 -1990 0
-1978 -2131 0
-1978 -2133 0
-1978 -2134 0
-1978 -2136 0
-1978 -2137 0
-1978 -2138 0
-1978 -2139 0
-1978 -2140 0
-1979 -1981 0
-1979 -1982 0
-1979 -1983 0
-1979 -1984 0
-1979 -1985 0
-1979 -1986 0
-1979 -1987 0
-1979 -1988 0
-1979 -1989 0
-1979 -2131 0
-1979 -2132 0
-1979 -2133 0
-1979 -2135 0
-1979 -2136 0
-1979 -2137 0
-1979 -2138 0
-1979 -2139 0
-1980 -1982 0
-1980 -1983 0
-1980 -1984 0
-1980 -1985 0
-1980 -1986 0
-1980 -1987 0
-1980 -1988 0
-1980 -1989 0
-1980 -1990 0
-1980 -2132 0
-1980 -2133 0
-1980 -2134 0
-1980 -2135 0
-1980 -2136 0
-1980 -2137 0
-1980 -2138 0
-1980 -2139 0
-1980 -2140 0
-1981 -1991 0
-1981 -1993 0
-1981 -1994 0
-1981 -1996 0
-1981 -1997 0
-1981 -1998 0
-1981 -1999 0
-1981 -2000 0
-1981 -2141 0
-1981 -2143 0
-1981 -2144 0
-1981 -2146 0
-1981 -2147 0
-1981 -2148 0
-1981 -2149 0
-1981 -2150 0
-1982 -1991 0
-1982 -1992 0
-1982 -1994 0
-1982 -1995 0
-1982 -1996 0
-1982 -1997 0
-1982 -1998 0
-1982 -1999 0
-1982 -2000 0
-1982 -2141 0
-1982 -2142 0
-1982 -2143 0
-1982 -2144 0
-1982 -2145 0
-1982 -2147 0
-1982 -2148 0
-1982 -2149 0
-1982 -2150 0
-1983 -1991 0
-1983 -1992 0
-1983 -1993 0
-1983 -1995 0
-1983 -1996 0
-1983 -1997 0
-1983 -1998 0
-1983 -1999 0
-1983 -2000 0
-1983 -2141 0
-1983 -2142 0
-1983 -2143 0
-1983 -2144 0
-1983 -2145 0
-1983 -2146 0
-1983 -2148 0
-1983 -2149 0
-1983 -2150 0
-1984 -1992 0
-1984 -1993 0
-1984 -1994 0
-1984 -1995 0
-1984 -1996 0
-1984 -1997 0
-1984 -1998 0
-1984 -1999 0
-1984 -2000 0
-1984 -2141 0
-1984 -2142 0
-1984 -2143 0
-1984 -2144 0
-1984 -2145 0
-1984 -2146 0
-1984 -2147 0
-1984 -2149 0
-1984 -2150 0
-1985 -1991 0
-1985 -1992 0
-1985 -1993 0
-1985 -1994 0
-1985 -1995 0
-1985 -1997 0
-1985 -1998 0
-1985 -2000 0
-1985 -2141 0
-1985 -2142 0
-1985 -2144 0
-1985 -2145 0
-1985 -2146 0
-1985 -2147 0
-1985 -2148 0
-1985 -2150 0
-1986 -1991 0
-1986 -1992 0
-1986 -1993 0
-1986 -1994 0
-1986 -1995 0
-1986 -1996 0
-1986 -1998 0
-1986 -1999 0
-1986 -2000 0
-1986 -2141 0
-1986 -2142 0
-1986 -2143 0
-1986 -2145 0
-1986 -2146 0
-1986 -2147 0
-1986 -2148 0
-1986 -2149 0
-1987 -1991 0
-1987 -1992 0
-1987 -1993 0
-1987 -1994 0
-1987 -1995 0
-1987 -1996 0
-1987 -1997 0
-1987 -1999 0
-1987 -2000 0
-1987 -2142 0
-1987 -2143 0
-1987 -2144 0
-1987 -2145 0
-1987 -2146 0
-1987 -2147 0
-1987 -2148 0
-1987 -2149 0
-1987 -2150 0
-1988 -1991 0
-1988 -1993 0
-1988 -1994 0
-1988 -1996 0
-1988 -1997 0
-1988 -1998 0
-1988 -1999 0
-1988 -2000 0
-1988 -2141 0
-1988 -2143 0
-1988 -2144 0
-1988 -2146 0
-1988 -2147 0
-1988 -2148 0
-1988 -2149 0
-1988 -2150 0
-1989 -1991 0
-1989 -1992 0
-1989 -1993 0
-1989 -1994 0
-1989 -1995 0
-1989 -1996 0
-1989 -1997 0
-1989 -1998 0
-1989 -1999 0
-1989 -2141 0
-1989 -2142 0
-1989 -2143 0
-1989 -2145 0
-1989 -2146 0
-1989 -2147 0
-1989 -2148 0
-1989 -2149 0
-1990 -1992 0
-1990 -1993 0
-1990 -1994 0
-1990 -1995 0
-1990 -1996 0
-1990 -1997 0
-1990 -1998 0
-1990 -1999 0
-1990 -2000 0
-1990 -2142 0
-1990 -2143 0
-1990 -2144 0
-1990 -2145 0
-1990 -2146 0
-1990 -2147 0
-1990 -2148 0
-1990 -2149 0
-1990 -2150 0
-1991 -2001 0
-1991 -2003 0
-1991 -2004 0
-1991 -2006 0
-1991 -2007 0
-1991 -2008 0
-1991 -2009 0
-1991 -2010 0
-1991 -2151 0
-1991 -2153 0
-1991 -2154 0
-1991 -2156 0
-1991 -2157 0
-1991 -2158 0
-1991 -2159 0
-1991 -2160 0
-1992 -2001 0
-1992 -2002 0
-1992 -2004 0
-1992 -2005 0
-1992 -2006 0
-1992 -2007 0
-1992 -2008 0
-1992 -2009 0
-1992 -2010 0
-1992 -2151 0
-1992 -2152 0
-1992 -2153 0
-1992 -2154 0
-1992 -2155 0
-1992 -2157 0
-1992 -2158 0
-1992 -2159 0
-1992 -2160 0
-1993 -2001 0
-1993 -2002 0
-1993 -2003 0
-1993 -2005 0
-1993 -2006 0
-1993 -2007 0
-1993 -2008 0
-1993 -2009 0
-1993 -2010 0
-1993 -2151 0
-1993 -2152 0
-1993 -2153 0
-1993 -2154 0
-1993 -2155 0
-1993 -2156 0
-1993 -2158 0
-1993 -2159 0
-1993 -2160 0
-1994 -2002 0
-1994 -2003 0
-1994 -2004 0
-1994 -2005 0
-1994 -2006 0
-1994 -2007 0
-1994 -2008 0
-1994 -2009 0
-1994 -2010 0
-1994 -2151 0
-1994 -2152 0
-1994 -2153 0
-1994 -2154 0
-1994 -2155 0
-1994 -2156 0
-1994 -2157 0
-1994 -2159 0
-1994 -2160 0
-1995 -2001 0
-1995 -2002 0
-1995 -2003 0
-1995 -2004 0
-1995 -2005 0
-1995 -2007 0
-1995 -2008 0
-1995 -2010 0
-1995 -2151 0
-1995 -2152 0
-1995 -2154 0
-1995 -2155 0
-1995 -2156 0
-1995 -2157 0
-1995 -2158 0
-1995 -2160 0
-1996 -2001 0
-1996 -2002 0
-1996 -2003 0
-1996 -2004 0
-1996 -2005 0
-1996 -2006 0
-1996 -2008 0
-1996 -2009 0
-1996 -2010 0
-1996 -2151 0
-1996 -2152 0
-1996 -2153 0
-1996 -2155 0
-1996 -2156 0
-1996 -2157 0
-1996 -2158 0
-1996 -2159 0
-1997 -2001 0
-1997 -2002 0
-1997 -2003 0
-1997 -2004 0
-1997 -2005 0
-1997 -2006 0
-1997 -2007 0
-1997 -2009 0
-1997 -2010 0
-1997 -2152 0
-1997 -2153 0
-1997 -2154 0
-1997 -2155 0
-1997 -2156 0
-1997 -2157 0
-1997 -2158 0
-1997 -2159 0
-1997 -2160 0
-1998 -2001 0
-1998 -2003 0
-1998 -2004 0
-1998 -2006 0
-1998 -2007 0
-1998 -2008 0
-1998 -2009 0
-1998 -2010 0
-1998 -2151 0
-1998 -2153 0
-1998 -2154 0
-1998 -2156 0
-1998 -2157 0
-1998 -2158 0
-1998 -2159 0
-1998 -2160 0
-1999 -2001 0
-1999 -2002 0
-1999 -2003 0
-1999 -2004 0
-1999 -2005 0
-1999 -2006 0
-1999 -2007 0
-1999 -2008 0
-1999 -2009 0
-1999 -2151 0
-1999 -2152 0
-1999 -2153 0
-1999 -2155 0
-1999 -2156 0
-1999 -2157 0
-1999 -2158 0
-1999 -2159 0
-2000 -2002 0
-2000 -2003 0
-2000 -2004 0
-2000 -2005 0
-2000 -2006 0
-2000 -2007 0
-2000 -2008 0
-2000 -2009 0
-2000 -2010 0
-2000 -2152 0
-2000 -2153 0
-2000 -2154 0
-2000 -2155 0
-2000 -2156 0
-2000 -2157 0
-2000 -2158 0
-2000 -2159 0
-2000 -2160 0
-2001 -2011 0
-2001 -2013 0
-2001 -2014 0
-2001 -2016 0
-2001 -2017 0
-2001 -2018 0
-2001 -2019 0
-2001 -2020 0
-2001 -2161 0
-2001 -2163 0
-2001 -2164 0
-2001 -2166 0
-2001 -2167 0
-2001 -2168 0
-2001 -2169 0
-2001 -2170 0
-2002 -2011 0
-2002 -2012 0
-2002 -2014 0
-2002 -2015 0
-2002 -2016 0
-2002 -2017 0
-2002 -2018 0
-2002 -2019 0
-2002 -2020 0
-2002 -2161 0
-2002 -2162 0
-2002 -2163 0
-2002 -2164 0
-2002 -2165 0
-2002 -2167 0
-2002 -2168 0
-2002 -2169 0
-2002 -2170 0
-2003 -2011 0
-2003 -2012 0
-2003 -2013 0
-2003 -2015 0
-2003 -2016 0
-2003 -2017 0
-2003 -2018 0
-2003 -2019 0
-2003 -2020 0
-2003 -2161 0
-2003 -2162 0
-2003 -2163 0
-2003 -2164 0
-2003 -2165 0
-2003 -2166 0
-2003 -2168 0
-2003 -2169 0
-2003 -2170 0
-2004 -2012 0
-2004 -2013 0
-2004 -2014 0
-2004 -2015 0
-2004 -2016 0
-2004 -2017 0
-2004 -2018 0
-2004 -2019 0
-2004 -2020 0
-2004 -2161 0
-2004 -2162 0
-2004 -2163 0
-2004 -2164 0
-2004 -2165 0
-2004 -2166 0
-2004 -2167 0
-2004 -2169 0
-2004 -2170 0
-2005 -2011 0
-2005 -2012 0
-2005 -2013 0
-2005 -2014 0
-2005 -2015 0
-2005 -2017 0
-2005 -2018 0
-2005 -2020 0
-2005 -2161 0
-2005 -2162 0
-2005 -2164 0
-2005 -2165 0
-2005 -2166 0
-2005 -2167 0
-2005 -2168 0
-2005 -2170 0
-2006 -2011 0
-2006 -2012 0
-2006 -2013 0
-2006 -2014 0
-2006 -2015 0
-2006 -2016 0
-2006 -2018 0
-2006 -2019 0
-2006 -2020 0
-2006 -2161 0
-2006 -2162 0
-2006 -2163 0
-2006 -2165 0
-2006 -2166 0
-2006 -2167 0
-2006 -2168 0
-2006 -2169 0
-2007 -2011 0
-2007 -2012 0
-2007 -2013 0
-2007 -2014 0
-2007 -2015 0
-2007 -2016 0
-2007 -2017 0
-2007 -2019 0
-2007 -2020 0
-2007 -2162 0
-2007 -2163 0
-2007 -2164 0
-2007 -2165 0
-2007 -2166 0
-2007 -2167 0
-2007 -2168 0
-2007 -2169 0
-2007 -2170 0
-2008 -2011 0
-2008 -2013 0
-2008 -2014 0
-2008 -2016 0
-2008 -2017 0
-2008 -2018 0
-2008 -2019 0
-2008 -2020 0
-2008 -2161 0
-2008 -2163 0
-2008 -2164 0
-2008 -2166 0
-2008 -2167 0
-2008 -2168 0
-2008 -2169 0
-2008 -2170 0
-2009 -2011 0
-2009 -2012 0
-2009 -2013 0
-2009 -2014 0
-2009 -2015 0
-2009 -2016 0
-2009 -2017 0
-2009 -2018 0
-2009 -2019 0
-2009 -2161 0
-2009 -2162 0
-2009 -2163 0
-2009 -2165 0
-2009 -2166 0
-2009 -2167 0
-2009 -2168 0
-2009 -2169 0
-2010 -2012 0
-2010 -2013 0
-2010 -2014 0
-2010 -2015 0
-2010 -2016 0
-2010 -2017 0
-2010 -2018 0
-2010 -2019 0
-2010 -2020 0
-2010 -2162 0
-2010 -2163 0
-2010 -2164 0
-2010 -2165 0
-2010 -2166 0
-2010 -2167 0
-2010 -2168 0
-2010 -2169 0
-2010 -2170 0
-2011 -2021 0
-2011 -2023 0
-2011 -2024 0
-2011 -2026 0
-2011 -2027 0
-2011 -2028 0
-2011 -2029 0
-2011 -2030 0
-2011 -2171 0
-2011 -2173 0
-2011 -2174 0
-2011 -2176 0
-2011 -2177 0
-2011 -2178 0
-2011 -2179 0
-2011 -2180 0
-2012 -2021 0
-2012 -2022 0
-2012 -2024 0
-2012 -2025 0
-2012 -2026 0
-2012 -2027 0
-2012 -2028 0
-2012 -2029 0
-2012 -2030 0
-2012 -2171 0
-2012 -2172 0
-2012 -2173 0
-2012 -2174 0
-2012 -2175 0
-2012 -2177 0
-2012 -2178 0
-2012 -2179 0
-2012 -2180 0
-2013 -2021 0
-2013 -2022 0
-2013 -2023 0
-2013 -2025 0
-2013 -2026 0
-2013 -2027 0
-2013 -2028 0
-2013 -2029 0
-2013 -2030 0
-2013 -2171 0
-2013 -2172 0
-2013 -2173 0
-2013 -2174 0
-2013 -2175 0
-2013 -2176 0
-2013 -2178 0
-2013 -2179 0
-2013 -2180 0
-2014 -2022 0
-2014 -2023 0
-2014 -2024 0
-2014 -2025 0
-2014 -2026 0
-2014 -2027 0
-2014 -2028 0
-2014 -2029 0
-2014 -2030 0
-2014 -2171 0
-2014 -2172 0
-2014 -2173 0
-2014 -2174 0
-2014 -2175 0
-2014 -2176 0
-2014 -2177 0
-2014 -2179 0
-2014 -2180 0
-2015 -2021 0
-2015 -2022 0
-2015 -2023 0
-2015 -2024 0
-2015 -2025 0
-2015 -2027 0
-2015 -2028 0
-2015 -2030 0
-2015 -2171 0
-2015 -2172 0
-2015 -2174 0
-2015 -2175 0
-2015 -2176 0
-2015 -2177 0
-2015 -2178 0
-2015 -2180 0
-2016 -2021 0
-2016 -2022 0
-2016 -2023 0
-2016 -2024 0
-2016 -2025 0
-2016 -2026 0
-2016 -2028 0
-2016 -2029 0
-2016 -2030 0
-2016 -2171 0
-2016 -2172 0
-2016 -2173 0
-2016 -2175 0
-2016 -2176 0
-2016 -2177 0
-2016 -2178 0
-2016 -2179 0
-2017 -2021 0
-2017 -2022 0
-2017 -2023 0
-2017 -2024 0
-2017 -2025 0
-2017 -2026 0
-2017 -2027 0
-2017 -2029 0
-2017 -2030 0
-2017 -2172 0
-2017 -2173 0
-2017 -2174 0
-2017 -2175 0
-2017 -2176 0
-2017 -2177 0
-2017 -2178 0
-2017 -2179 0
-2017 -2180 0
-2018 -2021 0
-2018 -2023 0
-2018 -2024 0
-2018 -2026 0
-2018 -2027 0
-2018 -2028 0
-2018 -2029 0
-2018 -2030 0
-2018 -2171 0
-2018 -2173 0
-2018 -2174 0
-2018 -2176 0
-2018 -2177 0
-2018 -2178 0
-2018 -2179 0
-2018 -2180 0
-2019 -2021 0
-2019 -2022 0
-2019 -2023 0
-2019 -2024 0
-2019 -2025 0
-2019 -2026 0
-2019 -2027 0
-2019 -2028 0
-2019 -2029 0
-2019 -2171 0
-2019 -2172 0
-2019 -2173 0
-2019 -2175 0
-2019 -2176 0
-2019 -2177 0
-2019 -2178 0
-2019 -2179 0
-2020 -2022 0
-2020 -2023 0
-2020 -2024 0
-2020 -2025 0
-2020 -2026 0
-2020 -2027 0
-2020 -2028 0
-2020 -2029 0
-2020 -2030 0
-2020 -2172 0
-2020 -2173 0
-2020 -2174 0
-2020 -2175 0
-2020 -2176 0
-2020 -2177 0
-2020 -2178 0
-2020 -2179 0
-2020 -2180 0
-2021 -2031 0
-2021 -2033 0
-2021 -2034 0
-2021 -2036 0
-2021 -2037 0
-2021 -2038 0
-2021 -2039 0
-2021 -2040 0
-2021 -2181 0
-2021 -2183 0
-2021 -2184 0
-2021 -2186 0
-2021 -2187 0
-2021 -2188 0
-2021 -2189 0
-2021 -2190 0
-2022 -2031 0
-2022 -2032 0
-2022 -2034 0
-2022 -2035 0
-2022 -2036 0
-2022 -2037 0
-2022 -2038 0
-2022 -2039 0
-2022 -2040 0
-2022 -2181 0
-2022 -2182 0
-2022 -2183 0
-2022 -2184 0
-2022 -2185 0
-2022 -2187 0
-2022 -2188 0
-2022 -2189 0
-2022 -2190 0
-2023 -2031 0
-2023 -2032 0
-2023 -2033 0
-2023 -2035 0
-2023 -2036 0
-2023 -2037 0
-2023 -2038 0
-2023 -2039 0
-2023 -2040 0
-2023 -2181 0
-2023 -2182 0
-2023 -2183 0
-2023 -2184 0
-2023 -2185 0
-2023 -2186 0
-2023 -2188 0
-2023 -2189 0
-2023 -2190 0
-2024 -2032 0
-2024 -2033 0
-2024 -2034 0
-2024 -2035 0
-2024 -2036 0
-2024 -2037 0
-2024 -2038 0
-2024 -2039 0
-2024 -2040 0
-2024 -2181 0
-2024 -2182 0
-2024 -2183 0
-2024 -2184 0
-2024 -2185 0
-2024 -2186 0
-2024 -2187 0
-2024 -2189 0
-2024 -2190 0
-2025 -2031 0
-2025 -2032 0
-2025 -2033 0
-2025 -2034 0
-2025 -2035 0
-2025 -2037 0
-2025 -2038 0
-2025 -2040 0
-2025 -2181 0
-2025 -2182 0
-2025 -2184 0
-2025 -2185 0
-2025 -2186 0
-2025 -2187 0
-2025 -2188 0
-2025 -2190 0
-2026 -2031 0
-2026 -2032 0
-2026 -2033 0
-2026 -2034 0
-2026 -2035 0
-2026 -2036 0
-2026 -2038 0
-2026 -2039 0
-2026 -2040 0
-2026 -2181 0
-2026 -2182 0
-2026 -2183 0
-2026 -2185 0
-2026 -2186 0
-2026 -2187 0
-2026 -2188 0
-2026 -2189 0
-2027 -2031 0
-2027 -2032 0
-2027 -2033 0
-2027 -2034 0
-2027 -2035 0
-2027 -2036 0
-2027 -2037 0
-2027 -2039 0
-2027 -2040 0
-2027 -2182 0
-2027 -2183 0
-2027 -2184 0
-2027 -2185 0
-2027 -2186 0
-2027 -2187 0
-2027 -2188 0
-2027 -2189 0
-2027 -2190 0
-2028 -2031 0
-2028 -2033 0
-2028 -2034 0
-2028 -2036 0
-2028 -2037 0
-2028 -2038 0
-2028 -2039 0
-2028 -2040 0
-2028 -2181 0
-2028 -2183 0
-2028 -2184 0
-2028 -2186 0
-2028 -2187 0
-2028 -2188 0
-2028 -2189 0
-2028 -2190 0
-2029 -2031 0
-2029 -2032 0
-2029 -2033 0
-2029 -2034 0
-2029 -2035 0
-2029 -2036 0
-2029 -2037 0
-2029 -2038 0
-2029 -2039 0
-2029 -2181 0
-2029 -2182 0
-2029 -2183 0
-2029 -2185 0
-2029 -2186 0
-2029 -2187 0
-2029 -2188 0
-2029 -2189 0
-2030 -2032 0
-2030 -2033 0
-2030 -2034 0
-2030 -2035 0
-2030 -2036 0
-2030 -2037 0
-2030 -2038 0
-2030 -2039 0
-2030 -2040 0
-2030 -2182 0
-2030 -2183 0
-2030 -2184 0
-2030 -2185 0
-2030 -2186 0
-2030 -2187 0
-2030 -2188 0
-2030 -2189 0
-2030 -2190 0
-2031 -2041 0
-2031 -2043 0
-2031 -2044 0
-2031 -2046 0
-2031 -2047 0
-2031 -2048 0
-2031 -2049 0
-2031 -2050 0
-2031 -2191 0
-2031 -2193 0
-2031 -2194 0
-2031 -2196 0
-2031 -2197 0
-2031 -2198 0
-2031 -2199 0
-2031 -2200 0
-2032 -2041 0
-2032 -2042 0
-2032 -2044 0
-2032 -2045 0
-2032 -2046 0
-2032 -2047 0
-2032 -2048 0
-2032 -2049 0
-2032 -2050 0
-2032 -2191 0
-2032 -2192 0
-2032 -2193 0
-2032 -2194 0
-2032 -2195 0
-2032 -2197 0
-2032 -2198 0
-2032 -2199 0
-2032 -2200 0
-2033 -2041 0
-2033 -2042 0
-2033 -2043 0
-2033 -2045 0
-2033 -2046 0
-2033 -2047 0
-2033 -2048 0
-2033 -2049 0
-2033 -2050 0
-2033 -2191 0
-2033 -2192 0
-2033 -2193 0
-2033 -2194 0
-2033 -2195 0
-2033 -2196 0
-2033 -2198 0
-2033 -2199 0
-2033 -2200 0
-2034 -2042 0
-2034 -2043 0
-2034 -2044 0
-2034 -2045 0
-2034 -2046 0
-2034 -2047 0
-2034 -2048 0
-2034 -2049 0
-2034 -2050 0
-2034 -2191 0
-2034 -2192 0
-2034 -2193 0
-2034 -2194 0
-2034 -2195 0
-2034 -2196 0
-2034 -2197 0
-2034 -2199 0
-2034 -2200 0
-2035 -2041 0
-2035 -2042 0
-2035 -2043 0
-2035 -2044 0
-2035 -2045 0
-2035 -2047 0
-2035 -2048 0
-2035 -2050 0
-2035 -2191 0
-2035 -2192 0
-2035 -2194 0
-2035 -2195 0
-2035 -2196 0
-2035 -2197 0
-2035 -2198 0
-2035 -2200 0
-2036 -2041 0
-2036 -2042 0
-2036 -2043 0
-2036 -2044 0
-2036 -2045 0
-2036 -2046 0
-2036 -2048 0
-2036 -2049 0
-2036 -2050 0
-2036 -2191 0
-2036 -2192 0
-2036 -2193 0
-2036 -2195 0
-2036 -2196 0
-2036 -2197 0
-2036 -2198 0
-2036 -2199 0
-2037 -2041 0
-2037 -2042 0
-2037 -2043 0
-2037 -2044 0
-2037 -2045 0
-2037 -2046 0
-2037 -2047 0
-2037 -2049 0
-2037 -2050 0
-2037 -2192 0
-2037 -2193 0
-2037 -2194 0
-2037 -2195 0
-2037 -2196 0
-2037 -2197 0
-2037 -2198 0
-2037 -2199 0
-2037 -2200 0
-2038 -2041 0
-2038 -2043 0
-2038 -2044 0
-2038 -2046 0
-2038 -2047 0
-2038 -2048 0
-2038 -2049 0
-2038 -2050 0
-2038 -2191 0
-2038 -2193 0
-2038 -2194 0
-2038 -2196 0
-2038 -2197 0
-2038 -2198 0
-2038 -2199 0
-2038 -2200 0
-2039 -2041 0
-2039 -2042 0
-2039 -2043 0
-2039 -2044 0
-2039 -2045 0
-2039 -2046 0
-2039 -2047 0
-2039 -2048 0
-2039 -2049 0
-2039 -2191 0
-2039 -2192 0
-2039 -2193 0
-2039 -2195 0
-2039 -2196 0
-2039 -2197 0
-2039 -2198 0
-2039 -2199 0
-2040 -2042 0
-2040 -2043 0
-2040 -2044 0
-2040 -2045 0
-2040 -2046 0
-2040 -2047 0
-2040 -2048 0
-2040 -2049 0
-2040 -2050 0
-2040 -2192 0
-2040 -2193 0
-2040 -2194 0
-2040 -2195 0
-2040 -2196 0
-2040 -2197 0
-2040 -2198 0
-2040 -2199 0
-2040 -2200 0
-2041 -2051 0
-2041 -2053 0
-2041 -2054 0
-2041 -2056 0
-2041 -2057 0
-2041 -2058 0
-2041 -2059 0
-2041 -2060 0
-2041 -2201 0
-2041 -2203 0
-2041 -2204 0
-2041 -2206 0
-2041 -2207 0
-2041 -2208 0
-2041 -2209 0
-2041 -2210 0
-2042 -2051 0
-2042 -2052 0
-2042 -2054 0
-2042 -2055 0
-2042 -2056 0
-2042 -2057 0
-2042 -2058 0
-2042 -2059 0
-2042 -2060 0
-2042 -2201 0
-2042 -2202 0
-2042 -2203 0
-2042 -2204 0
-2042 -2205 0
-2042 -2207 0
-2042 -2208 0
-2042 -2209 0
-2042 -2210 0
-2043 -2051 0
-2043 -2052 0
-2043 -2053 0
-2043 -2055 0
-2043 -2056 0
-2043 -2057 0
-2043 -2058 0
-2043 -2059 0
-2043 -2060 0
-2043 -2201 0
-2043 -2202 0
-2043 -2203 0
-2043 -2204 0
-2043 -2205 0
-2043 -2206 0
-2043 -2208 0
-2043 -2209 0
-2043 -2210 0
-2044 -2052 0
-2044 -2053 0
-2044 -2054 0
-2044 -2055 0
-2044 -2056 0
-2044 -2057 0
-2044 -2058 0
-2044 -2059 0
-2044 -2060 0
-2044 -2201 0
-2044 -2202 0
-2044 -2203 0
-2044 -2204 0
-2044 -2205 0
-2044 -2206 0
-2044 -2207 0
-2044 -2209 0
-2044 -2210 0
-2045 -2051 0
-2045 -2052 0
-2045 -2053 0
-2045 -2054 0
-2045 -2055 0
-2045 -2057 0
-2045 -2058 0
-2045 -2060 0
-2045 -2201 0
-2045 -2202 0
-2045 -2204 0
-2045 -2205 0
-2045 -2206 0
-2045 -2207 0
-2045 -2208 0
-2045 -2210 0
-2046 -2051 0
-2046 -2052 0
-2046 -2053 0
-2046 -2054 0
-2046 -2055 0
-2046 -2056 0
-2046 -2058 0
-2046 -2059 0
-2046 -2060 0
-2046 -2201 0
-2046 -2202 0
-2046 -2203 0
-2046 -2205 0
-2046 -2206 0
-2046 -2207 0
-2046 -2208 0
-2046 -2209 0
-2047 -2051 0
-2047 -2052 0
-2047 -2053 0
-2047 -2054 0
-2047 -2055 0
-2047 -2056 0
-2047 -2057 0
-2047 -2059 0
-2047 -2060 0
-2047 -2202 0
-2047 -2203 0
-2047 -2204 0
-2047 -2205 0
-2047 -2206 0
-2047 -2207 0
-2047 -2208 0
-2047 -2209 0
-2047 -2210 0
-2048 -2051 0
-2048 -2053 0
-2048 -2054 0
-2048 -2056 0
-2048 -2057 0
-2048 -2058 0
-2048 -2059 0
-2048 -2060 0
-2048 -2201 0
-2048 -2203 0
-2048 -2204 0
-2048 -2206 0
-2048 -2207 0
-2048 -2208 0
-2048 -2209 0
-2048 -2210 0
-2049 -2051 0
-2049 -2052 0
-2049 -2053 0
-2049 -2054 0
-2049 -2055 0
-2049 -2056 0
-2049 -2057 0
-2049 -2058 0
-2049 -2059 0
-2049 -2201 0
-2049 -2202 0
-2049 -2203 0
-2049 -2205 0
-2049 -2206 0
-2049 -2207 0
-2049 -2208 0
-2049 -2209 0
-2050 -2052 0
-2050 -2053 0
-2050 -2054 0
-2050 -2055 0
-2050 -2056 0
-2050 -2057 0
-2050 -2058 0
-2050 -2059 0
-2050 -2060 0
-2050 -2202 0
-2050 -2203 0
-2050 -2204 0
-2050 -2205 0
-2050 -2206 0
-2050 -2207 0
-2050 -2208 0
-2050 -2209 0
-2050 -2210 0
-2051 -2061 0
-2051 -2063 0
-2051 -2064 0
-2051 -2066 0
-2051 -2067 0
-2051 -2068 0
-2051 -2069 0
-2051 -2070 0
-2051 -2211 0
-2051 -2213 0
-2051 -2214 0
-2051 -2216 0
-2051 -2217 0
-2051 -2218 0
-2051 -2219 0
-2051 -2220 0
-2052 -2061 0
-2052 -2062 0
-2052 -2064 0
-2052 -2065 0
-2052 -2066 0
-2052 -2067 0
-2052 -2068 0
-2052 -2069 0
-2052 -2070 0
-2052 -2211 0
-2052 -2212 0
-2052 -2213 0
-2052 -2214 0
-2052 -2215 0
-2052 -2217 0
-2052 -2218 0
-2052 -2219 0
-2052 -2220 0
-2053 -2061 0
-2053 -2062 0
-2053 -2063 0
-2053 -2065 0
-2053 -2066 0
-2053 -2067 0
-2053 -2068 0
-2053 -2069 0
-2053 -2070 0
-2053 -2211 0
-2053 -2212 0
-2053 -2213 0
-2053 -2214 0
-2053 -2215 0
-2053 -2216 0
-2053 -2218 0
-2053 -2219 0
-2053 -2220 0
-2054 -2062 0
-2054 -2063 0
-2054 -2064 0
-2054 -2065 0
-2054 -2066 0
-2054 -2067 0
-2054 -2068 0
-2054 -2069 0
-2054 -2070 0
-2054 -2211 0
-2054 -2212 0
-2054 -2213 0
-2054 -2214 0
-2054 -2215 0
-2054 -2216 0
-2054 -2217 0
-2054 -2219 0
-2054 -2220 0
-2055 -2061 0
-2055 -2062 0
-2055 -2063 0
-2055 -2064 0
-2055 -2065 0
-2055 -2067 0
-2055 -2068 0
-2055 -2070 0
-2055 -2211 0
-2055 -2212 0
-2055 -2214 0
-2055 -2215 0
-2055 -2216 0
-2055 -2217 0
-2055 -2218 0
-2055 -2220 0
-2056 -2061 0
-2056 -2062 0
-2056 -2063 0
-2056 -2064 0
-2056 -2065 0
-2056 -2066 0
-2056 -2068 0
-2056 -2069 0
-2056 -2070 0
-2056 -2211 0
-2056 -2212 0
-2056 -2213 0
-2056 -2215 0
-2056 -2216 0
-2056 -2217 0
-2056 -2218 0
-2056 -2219 0
-2057 -2061 0
-2057 -2062 0
-2057 -2063 0
-2057 -2064 0
-2057 -2065 0
-2057 -2066 0
-2057 -2067 0
-2057 -2069 0
-2057 -2070 0
-2057 -2212 0
-2057 -2213 0
-2057 -2214 0
-2057 -2215 0
-2057 -2216 0
-2057 -2217 0
-2057 -2218 0
-2057 -2219 0
-2057 -2220 0
-2058 -2061 0
-2058 -2063 0
-2058 -2064 0
-2058 -2066 0
-2058 -2067 0
-2058 -2068 0
-2058 -2069 0
-2058 -2070 0
-2058 -2211 0
-2058 -2213 0
-2058 -2214 0
-2058 -2216 0
-2058 -2217 0
-2058 -2218 0
-2058 -2219 0
-2058 -2220 0
-2059 -2061 0
-2059 -2062 0
-2059 -2063 0
-2059 -2064 0
-2059 -2065 0
-2059 -2066 0
-2059 -2067 0
-2059 -2068 0
-2059 -2069 0
-2059 -2211 0
-2059 -2212 0
-2059 -2213 0
-2059 -2215 0
-2059 -2216 0
-2059 -2217 0
-2059 -2218 0
-2059 -2219 0
-2060 -2062 0
-2060 -2063 0
-2060 -2064 0
-2060 -2065 0
-2060 -2066 0
-2060 -2067 0
-2060 -2068 0
-2060 -2069 0
-2060 -2070 0
-2060 -2212 0
-2060 -2213 0
-2060 -2214 0
-2060 -2215 0
-2060 -2216 0
-2060 -2217 0
-2060 -2218 0
-2060 -2219 0
-2060 -2220 0
-2061 -2071 0
-2061 -2073 0
-2061 -2074 0
-2061 -2076 0
-2061 -2077 0
-2061 -2078 0
-2061 -2079 0
-2061 -2080 0
-2061 -2221 0
-2061 -2223 0
-2061 -2224 0
-2061 -2226 0
-2061 -2227 0
-2061 -2228 0
-2061 -2229 0
-2061 -2230 0
-2062 -2071 0
-2062 -2072 0
-2062 -2074 0
-2062 -2075 0
-2062 -2076 0
-2062 -2077 0
-2062 -2078 0
-2062 -2079 0
-2062 -2080 0
-2062 -2221 0
-2062 -2222 0
-2062 -2223 0
-2062 -2224 0
-2062 -2225 0
-2062 -2227 0
-2062 -2228 0
-2062 -2229 0
-2062 -2230 0
-2063 -2071 0
-2063 -2072 0
-2063 -2073 0
-2063 -2075 0
-2063 -2076 0
-2063 -2077 0
-2063 -2078 0
-2063 -2079 0
-2063 -2080 0
-2063 -2221 0
-2063 -2222 0
-2063 -2223 0
-2063 -2224 0
-2063 -2225 0
-2063 -2226 0
-2063 -2228 0
-2063 -2229 0
-2063 -2230 0
-2064 -2072 0
-2064 -2073 0
-2064 -2074 0
-2064 -2075 0
-2064 -2076 0
-2064 -2077 0
-2064 -2078 0
-2064 -2079 0
-2064 -2080 0
-2064 -2221 0
-2064 -2222 0
-2064 -2223 0
-2064 -2224 0
-2064 -2225 0
-2064 -2226 0
-2064 -2227 0
-2064 -2229 0
-2064 -2230 0
-2065 -2071 0
-2065 -2072 0
-2065 -2073 0
-2065 -2074 0
-2065 -2075 0
-2065 -2077 0
-2065 -2078 0
-2065 -2080 0
-2065 -2221 0
-2065 -2222 0
-2065 -2224 0
-2065 -2225 0
-2065 -2226 0
-2065 -2227 0
-2065 -2228 0
-2065 -2230 0
-2066 -2071 0
-2066 -2072 0
-2066 -2073 0
-2066 -2074 0
-2066 -2075 0
-2066 -2076 0
-2066 -2078 0
-2066 -2079 0
-2066 -2080 0
-2066 -2221 0
-2066 -2222 0
-2066 -2223 0
-2066 -2225 0
-2066 -2226 0
-2066 -2227 0
-2066 -2228 0
-2066 -2229 0
-2067 -2071 0
-2067 -2072 0
-2067 -2073 0
-2067 -2074 0
-2067 -2075 0
-2067 -2076 0
-2067 -2077 0
-2067 -2079 0
-2067 -2080 0
-2067 -2222 0
-2067 -2223 0
-2067 -2224 0
-2067 -2225 0
-2067 -2226 0
-2067 -2227 0
-2067 -2228 0
-2067 -2229 0
-2067 -2230 0
-2068 -2071 0
-2068 -2073 0
-2068 -2074 0
-2068 -2076 0
-2068 -2077 0
-2068 -2078 0
-2068 -2079 0
-2068 -2080 0
-2068 -2221 0
-2068 -2223 0
-2068 -2224 0
-2068 -2226 0
-2068 -2227 0
-2068 -2228 0
-2068 -2229 0
-2068 -2230 0
-2069 -2071 0
-2069 -2072 0
-2069 -2073 0
-2069 -2074 0
-2069 -2075 0
-2069 -2076 0
-2069 -2077 0
-2069 -2078 0
-2069 -2079 0
-2069 -2221 0
-2069 -2222 0
-2069 -2223 0
-2069 -2225 0
-2069 -2226 0
-2069 -2227 0
-2069 -2228 0
-2069 -2229 0
-2070 -2072 0
-2070 -2073 0
-2070 -2074 0
-2070 -2075 0
-2070 -2076 0
-2070 -2077 0
-2070 -2078 0
-2070 -2079 0
-2070 -2080 0
-2070 -2222 0
-2070 -2223 0
-2070 -2224 0
-2070 -2225 0
-2070 -2226 0
-2070 -2227 0
-2070 -2228 0
-2070 -2229 0
-2070 -2230 0
-2071 -2231 0
-2071 -2233 0
-2071 -2234 0
-2071 -2236 0
-2071 -2237 0
-2071 -2238 0
-2071 -2239 0
-2071 -2240 0
-2072 -2231 0
-2072 -2232 0
-2072 -2233 0
-2072 -2234 0
-2072 -2235 0
-2072 -2237 0
-2072 -2238 0
-2072 -2239 0
-2072 -2240 0
-2073 -2231 0
-2073 -2232 0
-2073 -2233 0
-2073 -2234 0
-2073 -2235 0
-2073 -2236 0
-2073 -2238 0
-2073 -2239 0
-2073 -2240 0
-2074 -2231 0
-2074 -2232 0
-2074 -2233 0
-2074 -2234 0
-2074 -2235 0
-2074 -2236 0
-2074 -2237 0
-2074 -2239 0
-2074 -2240 0
-2075 -2231 0
-2075 -2232 0
-2075 -2234 0
-2075 -2235 0
-2075 -2236 0
-2075 -2237 0
-2075 -2238 0
-2075 -2240 0
-2076 -2231 0
-2076 -2232 0
-2076 -2233 0
-2076 -2235 0
-2076 -2236 0
-2076 -2237 0
-2076 -2238 0
-2076 -2239 0
-2077 -2232 0
-2077 -2233 0
-2077 -2234 0
-2077 -2235 0
-2077 -2236 0
-2077 -2237 0
-2077 -2238 0
-2077 -2239 0
-2077 -2240 0
-2078 -2231 0
-2078 -2233 0
-2078 -2234 0
-2078 -2236 0
-2078 -2237 0
-2078 -2238 0
-2078 -2239 0
-2078 -2240 0
-2079 -2231 0
-2079 -2232 0
-2079 -2233 0
-2079 -2235 0
-2079 -2236 0
-2079 -2237 0
-2079 -2238 0
-2079 -2239 0
-2080 -2232 0
-2080 -2233 0
-2080 -2234 0
-2080 -2235 0
-2080 -2236 0
-2080 -2237 0
-2080 -2238 0
-2080 -2239 0
-2080 -2240 0
-2081 -2091 0
-2081 -2093 0
-2081 -2094 0
-2081 -2096 0
-2081 -2097 0
-2081 -2098 0
-2081 -2099 0
-2081 -2100 0
-2081 -2241 0
-2081 -2243 0
-2081 -2244 0
-2081 -2246 0
-2081 -2247 0
-2081 -2248 0
-2081 -2249 0
-2081 -2250 0
-2082 -2091 0
-2082 -2092 0
-2082 -2094 0
-2082 -2095 0
-2082 -2096 0
-2082 -2097 0
-2082 -2098 0
-2082 -2099 0
-2082 -2100 0
-2082 -2241 0
-2082 -2242 0
-2082 -2243 0
-2082 -2244 0
-2082 -2245 0
-2082 -2247 0
-2082 -2248 0
-2082 -2249 0
-2082 -2250 0
-2083 -2091 0
-2083 -2092 0
-2083 -2093 0
-2083 -2095 0
-2083 -2096 0
-2083 -2097 0
-2083 -2098 0
-2083 -2099 0
-2083 -2100 0
-2083 -2241 0
-2083 -2242 0
-2083 -2243 0
-2083 -2244 0
-2083 -2245 0
-2083 -2246 0
-2083 -2248 0
-2083 -2249 0
-2083 -2250 0
-2084 -2092 0
-2084 -2093 0
-2084 -2094 0
-2084 -2095 0
-2084 -2096 0
-2084 -2097 0
-2084 -2098 0
-2084 -2099 0
-2084 -2100 0
-2084 -2241 0
-2084 -2242 0
-2084 -2243 0
-2084 -2244 0
-2084 -2245 0
-2084 -2246 0
-2084 -2247 0
-2084 -2249 0
-2084 -2250 0
-2085 -2091 0
-2085 -2092 0
-2085 -2093 0
-2085 -2094 0
-2085 -2095 0
-2085 -2097 0
-2085 -2098 0
-2085 -2100 0
-2085 -2241 0
-2085 -2242 0
-2085 -2244 0
-2085 -2245 0
-2085 -2246 0
-2085 -2247 0
-2085 -2248 0
-2085 -2250 0
-2086 -2091 0
-2086 -2092 0
-2086 -2093 0
-2086 -2094 0
-2086 -2095 0
-2086 -2096 0
-2086 -2098 0
-2086 -2099 0
-2086 -2100 0
-2086 -2241 0
-2086 -2242 0
-2086 -2243 0
-2086 -2245 0
-2086 -2246 0
-2086 -2247 0
-2086 -2248 0
-2086 -2249 0
-2087 -2091 0
-2087 -2092 0
-2087 -2093 0
-2087 -2094 0
-2087 -2095 0
-2087 -2096 0
-2087 -2097 0
-2087 -2099 0
-2087 -2100 0
-2087 -2242 0
-2087 -2243 0
-2087 -2244 0
-2087 -2245 0
-2087 -2246 0
-2087 -2247 0
-2087 -2248 0
-2087 -2249 0
-2087 -2250 0
-2088 -2091 0
-2088 -2093 0
-2088 -2094 0
-2088 -2096 0
-2088 -2097 0
-2088 -2098 0
-2088 -2099 0
-2088 -2100 0
-2088 -2241 0
-2088 -2243 0
-2088 -2244 0
-2088 -2246 0
-2088 -2247 0
-2088 -2248 0
-2088 -2249 0
-2088 -2250 0
-2089 -2091 0
-2089 -2092 0
-2089 -2093 0
-2089 -2094 0
-2089 -2095 0
-2089 -2096 0
-2089 -2097 0
-2089 -2098 0
-2089 -2099 0
-2089 -2241 0
-2089 -2242 0
-2089 -2243 0
-2089 -2245 0
-2089 -2246 0
-2089 -2247 0
-2089 -2248 0
-2089 -2249 0
-2090 -2092 0
-2090 -2093 0
-2090 -2094 0
-2090 -2095 0
-2090 -2096 0
-2090 -2097 0
-2090 -2098 0
-2090 -2099 0
-2090 -2100 0
-2090 -2242 0
-2090 -2243 0
-2090 -2244 0
-2090 -2245 0
-2090 -2246 0
-2090 -2247 0
-2090 -2248 0
-2090 -2249 0
-2090 -2250 0
-2091 -2101 0
-2091 -2103 0
-2091 -2104 0
-2091 -2106 0
-2091 -2107 0
-2091 -2108 0
-2091 -2109 0
-2091 -2110 0
-2091 -2251 0
-2091 -2253 0
-2091 -2254 0
-2091 -2256 0
-2091 -2257 0
-2091 -2258 0
-2091 -2259 0
-2091 -2260 0
-2092 -2101 0
-2092 -2102 0
-2092 -2104 0
-2092 -2105 0
-2092 -2106 0
-2092 -2107 0
-2092 -2108 0
-2092 -2109 0
-2092 -2110 0
-2092 -2251 0
-2092 -2252 0
-2092 -2253 0
-2092 -2254 0
-2092 -2255 0
-2092 -2257 0
-2092 -2258 0
-2092 -2259 0
-2092 -2260 0
-2093 -2101 0
-2093 -2102 0
-2093 -2103 0
-2093 -2105 0
-2093 -2106 0
-2093 -2107 0
-2093 -2108 0
-2093 -2109 0
-2093 -2110 0
-2093 -2251 0
-2093 -2252 0
-2093 -2253 0
-2093 -2254 0
-2093 -2255 0
-2093 -2256 0
-2093 -2258 0
-2093 -2259 0
-2093 -2260 0
-2094 -2102 0
-2094 -2103 0
-2094 -2104 0
-2094 -2105 0
-2094 -2106 0
-2094 -2107 0
-2094 -2108 0
-2094 -2109 0
-2094 -2110 0
-2094 -2251 0
-2094 -2252 0
-2094 -2253 0
-2094 -2254 0
-2094 -2255 0
-2094 -2256 0
-2094 -2257 0
-2094 -2259 0
-2094 -2260 0
-2095 -2101 0
-2095 -2102 0
-2095 -2103 0
-2095 -2104 0
-2095 -2105 0
-2095 -2107 0
-2095 -2108 0
-2095 -2110 0
-2095 -2251 0
-2095 -2252 0
-2095 -2254 0
-2095 -2255 0
-2095 -2256 0
-2095 -2257 0
-2095 -2258 0
-2095 -2260 0
-2096 -2101 0
-2096 -2102 0
-2096 -2103 0
-2096 -2104 0
-2096 -2105 0
-2096 -2106 0
-2096 -2108 0
-2096 -2109 0
-2096 -2110 0
-2096 -2251 0
-2096 -2252 0
-2096 -2253 0
-2096 -2255 0
-2096 -2256 0
-2096 -2257 0
-2096 -2258 0
-2096 -2259 0
-2097 -2101 0
-2097 -2102 0
-2097 -2103 0
-2097 -2104 0
-2097 -2105 0
-2097 -2106 0
-2097 -2107 0
-2097 -2109 0
-2097 -2110 0
-2097 -2252 0
-2097 -2253 0
-2097 -2254 0
-2097 -2255 0
-2097 -2256 0
-2097 -2257 0
-2097 -2258 0
-2097 -2259 0
-2097 -2260 0
-2098 -2101 0
-2098 -2103 0
-2098 -2104 0
-2098 -2106 0
-2098 -2107 0
-2098 -2108 0
-2098 -2109 0
-2098 -2110 0
-2098 -2251 0
-2098 -2253 0
-2098 -2254 0
-2098 -2256 0
-2098 -2257 0
-2098 -2258 0
-2098 -2259 0
-2098 -2260 0
-2099 -2101 0
-2099 -2102 0
-2099 -2103 0
-2099 -2104 0
-2099 -2105 0
-2099 -2106 0
-2099 -2107 0
-2099 -2108 0
-2099 -2109 0
-2099 -2251 0
-2099 -2252 0
-2099 -2253 0
-2099 -2255 0
-2099 -2256 0
-2099 -2257 0
-2099 -2258 0
-2099 -2259 0
-2100 -2102 0
-2100 -2103 0
-2100 -2104 0
-2100 -2105 0
-2100 -2106 0
-2100 -2107 0
-2100 -2108 0
-2100 -2109 0
-2100 -2110 0
-2100 -2252 0
-2100 -2253 0
-2100 -2254 0
-2100 -2255 0
-2100 -2256 0
-2100 -2257 0
-2100 -2258 0
-2100 -2259 0
-2100 -2260 0
-2101 -2111 0
-2101 -2113 0
-2101 -2114 0
-2101 -2116 0
-2101 -2117 0
-2101 -2118 0
-2101 -2119 0
-2101 -2120 0
-2101 -2261 0
-2101 -2263 0
-2101 -2264 0
-2101 -2266 0
-2101 -2267 0
-2101 -2268 0
-2101 -2269 0
-2101 -2270 0
-2102 -2111 0
-2102 -2112 0
-2102 -2114 0
-2102 -2115 0
-2102 -2116 0
-2102 -2117 0
-2102 -2118 0
-2102 -2119 0
-2102 -2120 0
-2102 -2261 0
-2102 -2262 0
-2102 -2263 0
-2102 -2264 0
-2102 -2265 0
-2102 -2267 0
-2102 -2268 0
-2102 -2269 0
-2102 -2270 0
-2103 -2111 0
-2103 -2112 0
-2103 -2113 0
-2103 -2115 0
-2103 -2116 0
-2103 -2117 0
-2103 -2118 0
-2103 -2119 0
-2103 -2120 0
-2103 -2261 0
-2103 -2262 0
-2103 -2263 0
-2103 -2264 0
-2103 -2265 0
-2103 -2266 0
-2103 -2268 0
-2103 -2269 0
-2103 -2270 0
-2104 -2112 0
-2104 -2113 0
-2104 -2114 0
-2104 -2115 0
-2104 -2116 0
-2104 -2117 0
-2104 -2118 0
-2104 -2119 0
-2104 -2120 0
-2104 -2261 0
-2104 -2262 0
-2104 -2263 0
-2104 -2264 0
-2104 -2265 0
-2104 -2266 0
-2104 -2267 0
-2104 -2269 0
-2104 -2270 0
-2105 -2111 0
-2105 -2112 0
-2105 -2113 0
-2105 -2114 0
-2105 -2115 0
-2105 -2117 0
-2105 -2118 0
-2105 -2120 0
-2105 -2261 0
-2105 -2262 0
-2105 -2264 0
-2105 -2265 0
-2105 -2266 0
-2105 -2267 0
-2105 -2268 0
-2105 -2270 0
-2106 -2111 0
-2106 -2112 0
-2106 -2113 0
-2106 -2114 0
-2106 -2115 0
-2106 -2116 0
-2106 -2118 0
-2106 -2119 0
-2106 -2120 0
-2106 -2261 0
-2106 -2262 0
-2106 -2263 0
-2106 -2265 0
-2106 -2266 0
-2106 -2267 0
-2106 -2268 0
-2106 -2269 0
-2107 -2111 0
-2107 -2112 0
-2107 -2113 0
-2107 -2114 0
-2107 -2115 0
-2107 -2116 0
-2107 -2117 0
-2107 -2119 0
-2107 -2120 0
-2107 -2262 0
-2107 -2263 0
-2107 -2264 0
-2107 -2265 0
-2107 -2266 0
-2107 -2267 0
-2107 -2268 0
-2107 -2269 0
-2107 -2270 0
-2108 -2111 0
-2108 -2113 0
-2108 -2114 0
-2108 -2116 0
-2108 -2117 0
-2108 -2118 0
-2108 -2119 0
-2108 -2120 0
-2108 -2261 0
-2108 -2263 0
-2108 -2264 0
-2108 -2266 0
-2108 -2267 0
-2108 -2268 0
-2108 -2269 0
-2108 -2270 0
-2109 -2111 0
-2109 -2112 0
-2109 -2113 0
-2109 -2114 0
-2109 -2115 0
-2109 -2116 0
-2109 -2117 0
-2109 -2118 0
-2109 -2119 0
-2109 -2261 0
-2109 -2262 0
-2109 -2263 0
-2109 -2265 0
-2109 -2266 0
-2109 -2267 0
-2109 -2268 0
-2109 -2269 0
-2110 -2112 0
-2110 -2113 0
-2110 -2114 0
-2110 -2115 0
-2110 -2116 0
-2110 -2117 0
-2110 -2118 0
-2110 -2119 0
-2110 -2120 0
-2110 -2262 0
-2110 -2263 0
-2110 -2264 0
-2110 -2265 0
-2110 -2266 0
-2110 -2267 0
-2110 -2268 0
-2110 -2269 0
-2110 -2270 0
-2111 -2121 0
-2111 -2123 0
-2111 -2124 0
-2111 -2126 0
-2111 -2127 0
-2111 -2128 0
-2111 -2129 0
-2111 -2130 0
-2111 -2271 0
-2111 -2273 0
-2111 -2274 0
-2111 -2276 0
-2111 -2277 0
-2111 -2278 0
-2111 -2279 0
-2111 -2280 0
-2112 -2121 0
-2112 -2122 0
-2112 -2124 0
-2112 -2125 0
-2112 -2126 0
-2112 -2127 0
-2112 -2128 0
-2112 -2129 0
-2112 -2130 0
-2112 -2271 0
-2112 -2272 0
-2112 -2273 0
-2112 -2274 0
-2112 -2275 0
-2112 -2277 0
-2112 -2278 0
-2112 -2279 0
-2112 -2280 0
-2113 -2121 0
-2113 -2122 0
-2113 -2123 0
-2113 -2125 0
-2113 -2126 0
-2113 -2127 0
-2113 -2128 0
-2113 -2129 0
-2113 -2130 0
-2113 -2271 0
-2113 -2272 0
-2113 -2273 0
-2113 -2274 0
-2113 -2275 0
-2113 -2276 0
-2113 -2278 0
-2113 -2279 0
-2113 -2280 0
-2114 -2122 0
-2114 -2123 0
-2114 -2124 0
-2114 -2125 0
-2114 -2126 0
-2114 -2127 0
-2114 -2128 0
-2114 -2129 0
-2114 -2130 0
-2114 -2271 0
-2114 -2272 0
-2114 -2273 0
-2114 -2274 0
-2114 -2275 0
-2114 -2276 0
-2114 -2277 0
-2114 -2279 0
-2114 -2280 0
-2115 -2121 0
-2115 -2122 0
-2115 -2123 0
-2115 -2124 0
-2115 -2125 0
-2115 -2127 0
-2115 -2128 0
-2115 -2130 0
-2115 -2271 0
-2115 -2272 0
-2115 -2274 0
-2115 -2275 0
-2115 -2276 0
-2115 -2277 0
-2115 -2278 0
-2115 -2280 0
-2116 -2121 0
-2116 -2122 0
-2116 -2123 0
-2116 -2124 0
-2116 -2125 0
-2116 -2126 0
-2116 -2128 0
-2116 -2129 0
-2116 -2130 0
-2116 -2271 0
-2116 -2272 0
-2116 -2273 0
-2116 -2275 0
-2116 -2276 0
-2116 -2277 0
-2116 -2278 0
-2116 -2279 0
-2117 -2121 0
-2117 -2122 0
-2117 -2123 0
-2117 -2124 0
-2117 -2125 0
-2117 -2126 0
-2117 -2127 0
-2117 -2129 0
-2117 -2130 0
-2117 -2272 0
-2117 -2273 0
-2117 -2274 0
-2117 -2275 0
-2117 -2276 0
-2117 -2277 0
-2117 -2278 0
-2117 -2279 0
-2117 -2280 0
-2118 -2121 0
-2118 -2123 0
-2118 -2124 0
-2118 -2126 0
-2118 -2127 0
-2118 -2128 0
-2118 -2129 0
-2118 -2130 0
-2118 -2271 0
-2118 -2273 0
-2118 -2274 0
-2118 -2276 0
-2118 -2277 0
-2118 -2278 0
-2118 -2279 0
-2118 -2280 0
-2119 -2121 0
-2119 -2122 0
-2119 -2123 0
-2119 -2124 0
-2119 -2125 0
-2119 -2126 0
-2119 -2127 0
-2119 -2128 0
-2119 -2129 0
-2119 -2271 0
-2119 -2272 0
-2119 -2273 0
-2119 -2275 0
-2119 -2276 0
-2119 -2277 0
-2119 -2278 0
-2119 -2279 0
-2120 -2122 0
-2120 -2123 0
-2120 -2124 0
-2120 -2125 0
-2120 -2126 0
-2120 -2127 0
-2120 -2128 0
-2120 -2129 0
-2120 -2130 0
-2120 -2272 0
-2120 -2273 0
-2120 -2274 0
-2120 -2275 0
-2120 -2276 0
-2120 -2277 0
-2120 -2278 0
-2120 -2279 0
-2120 -2280 0
-2121 -2131 0
-2121 -2133 0
-2121 -2134 0
-2121 -2136 0
-2121 -2137 0
-2121 -2138 0
-2121 -2139 0
-2121 -2140 0
-2121 -2281 0
-2121 -2283 0
-2121 -2284 0
-2121 -2286 0
-2121 -2287 0
-2121 -2288 0
-2121 -2289 0
-2121 -2290 0
-2122 -2131 0
-2122 -2132 0
-2122 -2134 0
-2122 -2135 0
-2122 -2136 0
-2122 -2137 0
-2122 -2138 0
-2122 -2139 0
-2122 -2140 0
-2122 -2281 0
-2122 -2282 0
-2122 -2283 0
-2122 -2284 0
-2122 -2285 0
-2122 -2287 0
-2122 -2288 0
-2122 -2289 0
-2122 -2290 0
-2123 -2131 0
-2123 -2132 0
-2123 -2133 0
-2123 -2135 0
-2123 -2136 0
-2123 -2137 0
-2123 -2138 0
-2123 -2139 0
-2123 -2140 0
-2123 -2281 0
-2123 -2282 0
-2123 -2283 0
-2123 -2284 0
-2123 -2285 0
-2123 -2286 0
-2123 -2288 0
-2123 -2289 0
-2123 -2290 0
-2124 -2132 0
-2124 -2133 0
-2124 -2134 0
-2124 -2135 0
-2124 -2136 0
-2124 -2137 0
-2124 -2138 0
-2124 -2139 0
-2124 -2140 0
-2124 -2281 0
-2124 -2282 0
-2124 -2283 0
-2124 -2284 0
-2124 -2285 0
-2124 -2286 0
-2124 -2287 0
-2124 -2289 0
-2124 -2290 0
-2125 -2131 0
-2125 -2132 0
-2125 -2133 0
-2125 -2134 0
-2125 -2135 0
-2125 -2137 0
-2125 -2138 0
-2125 -2140 0
-2125 -2281 0
-2125 -2282 0
-2125 -2284 0
-2125 -2285 0
-2125 -2286 0
-2125 -2287 0
-2125 -2288 0
-2125 -2290 0
-2126 -2131 0
-2126 -2132 0
-2126 -2133 0
-2126 -2134 0
-2126 -2135 0
-2126 -2136 0
-2126 -2138 0
-2126 -2139 0
-2126 -2140 0
-2126 -2281 0
-2126 -2282 0
-2126 -2283 0
-2126 -2285 0
-2126 -2286 0
-2126 -2287 0
-2126 -2288 0
-2126 -2289 0
-2127 -2131 0
-2127 -2132 0
-2127 -2133 0
-2127 -2134 0
-2127 -2135 0
-2127 -2136 0
-2127 -2137 0
-2127 -2139 0
-2127 -2140 0
-2127 -2282 0
-2127 -2283 0
-2127 -2284 0
-2127 -2285 0
-2127 -2286 0
-2127 -2287 0
-2127 -2288 0
-2127 -2289 0
-2127 -2290 0
-2128 -2131 0
-2128 -2133 0
-2128 -2134 0
-2128 -2136 0
-2128 -2137 0
-2128 -2138 0
-2128 -2139 0
-2128 -2140 0
-2128 -2281 0
-2128 -2283 0
-2128 -2284 0
-2128 -2286 0
-2128 -2287 0
-2128 -2288 0
-2128 -2289 0
-2128 -2290 0
-2129 -2131 0
-2129 -2132 0
-2129 -2133 0
-2129 -2134 0
-2129 -2135 0
-2129 -2136 0
-2129 -2137 0
-2129 -2138 0
-2129 -2139 0
-2129 -2281 0
-2129 -2282 0
-2129 -2283 0
-2129 -2285 0
-2129 -2286 0
-2129 -2287 0
-2129 -2288 0
-2129 -2289 0
-2130 -2132 0
-2130 -2133 0
-2130 -2134 0
-2130 -2135 0
-2130 -2136 0
-2130 -2137 0
-2130 -2138 0
-2130 -2139 0
-2130 -2140 0
-2130 -2282 0
-2130 -2283 0
-2130 -2284 0
-2130 -2285 0
-2130 -2286 0
-2130 -2287 0
-2130 -2288 0
-2130 -2289 0
-2130 -2290 0
-2131 -2141 0
-2131 -2143 0
-2131 -2144 0
-2131 -2146 0
-2131 -2147 0
-2131 -2148 0
-2131 -2149 0
-2131 -2150 0
-2131 -2291 0
-2131 -2293 0
-2131 -2294 0
-2131 -2296 0
-2131 -2297 0
-2131 -2298 0
-2131 -2299 0
-2131 -2300 0
-2132 -2141 0
-2132 -2142 0
-2132 -2144 0
-2132 -2145 0
-2132 -2146 0
-2132 -2147 0
-2132 -2148 0
-2132 -2149 0
-2132 -2150 0
-2132 -2291 0
-2132 -2292 0
-2132 -2293 0
-2132 -2294 0
-2132 -2295 0
-2132 -2297 0
-2132 -2298 0
-2132 -2299 0
-2132 -2300 0
-2133 -2141 0
-2133 -2142 0
-2133 -2143 0
-2133 -2145 0
-2133 -2146 0
-2133 -2147 0
-2133 -2148 0
-2133 -2149 0
-2133 -2150 0
-2133 -2291 0
-2133 -2292 0
-2133 -2293 0
-2133 -2294 0
-2133 -2295 0
-2133 -2296 0
-2133 -2298 0
-2133 -2299 0
-2133 -2300 0
-2134 -2142 0
-2134 -2143 0
-2134 -2144 0
-2134 -2145 0
-2134 -2146 0
-2134 -2147 0
-2134 -2148 0
-2134 -2149 0
-2134 -2150 0
-2134 -2291 0
-2134 -2292 0
-2134 -2293 0
-2134 -2294 0
-2134 -2295 0
-2134 -2296 0
-2134 -2297 0
-2134 -2299 0
-2134 -2300 0
-2135 -2141 0
-2135 -2142 0
-2135 -2143 0
-2135 -2144 0
-2135 -2145 0
-2135 -2147 0
-2135 -2148 0
-2135 -2150 0
-2135 -2291 0
-2135 -2292 0
-2135 -2294 0
-2135 -2295 0
-2135 -2296 0
-2135 -2297 0
-2135 -2298 0
-2135 -2300 0
-2136 -2141 0
-2136 -2142 0
-2136 -2143 0
-2136 -2144 0
-2136 -2145 0
-2136 -2146 0
-2136 -2148 0
-2136 -2149 0
-2136 -2150 0
-2136 -2291 0
-2136 -2292 0
-2136 -2293 0
-2136 -2295 0
-2136 -2296 0
-2136 -2297 0
-2136 -2298 0
-2136 -2299 0
-2137 -2141 0
-2137 -2142 0
-2137 -2143 0
-2137 -2144 0
-2137 -2145 0
-2137 -2146 0
-2137 -2147 0
-2137 -2149 0
-2137 -2150 0
-2137 -2292 0
-2137 -2293 0
-2137 -2294 0
-2137 -2295 0
-2137 -2296 0
-2137 -2297 0
-2137 -2298 0
-2137 -2299 0
-2137 -2300 0
-2138 -2141 0
-2138 -2143 0
-2138 -2144 0
-2138 -2146 0
-2138 -2147 0
-2138 -2148 0
-2138 -2149 0
-2138 -2150 0
-2138 -2291 0
-2138 -2293 0
-2138 -2294 0
-2138 -2296 0
-2138 -2297 0
-2138 -2298 0
-2138 -2299 0
-2138 -2300 0
-2139 -2141 0
-2139 -2142 0
-2139 -2143 0
-2139 -2144 0
-2139 -2145 0
-2139 -2146 0
-2139 -2147 0
-2139 -2148 0
-2139 -2149 0
-2139 -2291 0
-2139 -2292 0
-2139 -2293 0
-2139 -2295 0
-2139 -2296 0
-2139 -2297 0
-2139 -2298 0
-2139 -2299 0
-2140 -2142 0
-2140 -2143 0
-2140 -2144 0
-2140 -2145 0
-2140 -2146 0
-2140 -2147 0
-2140 -2148 0
-2140 -2149 0
-2140 -2150 0
-2140 -2292 0
-2140 -2293 0
-2140 -2294 0
-2140 -2295 0
-2140 -2296 0
-2140 -2297 0
-2140 -2298 0
-2140 -2299 0
-2140 -2300 0
-2141 -2151 0
-2141 -2153 0
-2141 -2154 0
-2141 -2156 0
-2141 -2157 0
-2141 -2158 0
-2141 -2159 0
-2141 -2160 0
-2141 -2301 0
-2141 -2303 0
-2141 -2304 0
-2141 -2306 0
-2141 -2307 0
-2141 -2308 0
-2141 -2309 0
-2141 -2310 0
-2142 -2151 0
-2142 -2152 0
-2142 -2154 0
-2142 -2155 0
-2142 -2156 0
-2142 -2157 0
-2142 -2158 0
-2142 -2159 0
-2142 -2160 0
-2142 -2301 0
-2142 -2302 0
-2142 -2303 0
-2142 -2304 0
-2142 -2305 0
-2142 -2307 0
-2142 -2308 0
-2142 -2309 0
-2142 -2310 0
-2143 -2151 0
-2143 -2152 0
-2143 -2153 0
-2143 -2155 0
-2143 -2156 0
-2143 -2157 0
-2143 -2158 0
-2143 -2159 0
-2143 -2160 0
-2143 -2301 0
-2143 -2302 0
-2143 -2303 0
-2143 -2304 0
-2143 -2305 0
-2143 -2306 0
-2143 -2308 0
-2143 -2309 0
-2143 -2310 0
-2144 -2152 0
-2144 -2153 0
-2144 -2154 0
-2144 -2155 0
-2144 -2156 0
-2144 -2157 0
-2144 -2158 0
-2144 -2159 0
-2144 -2160 0
-2144 -2301 0
-2144 -2302 0
-2144 -2303 0
-2144 -2304 0
-2144 -2305 0
-2144 -2306 0
-2144 -2307 0
-2144 -2309 0
-2144 -2310 0
-2145 -2151 0
-2145 -2152 0
-2145 -2153 0
-2145 -2154 0
-2145 -2155 0
-2145 -2157 0
-2145 -2158 0
-2145 -2160 0
-2145 -2301 0
-2145 -2302 0
-2145 -2304 0
-2145 -2305 0
-2145 -2306 0
-2145 -2307 0
-2145 -2308 0
-2145 -2310 0
-2146 -2151 0
-2146 -2152 0
-2146 -2153 0
-2146 -2154 0
-2146 -2155 0
-2146 -2156 0
-2146 -2158 0
-2146 -2159 0
-2146 -2160 0
-2146 -2301 0
-2146 -2302 0
-2146 -2303 0
-2146 -2305 0
-2146 -2306 0
-2146 -2307 0
-2146 -2308 0
-2146 -2309 0
-2147 -2151 0
-2147 -2152 0
-2147 -2153 0
-2147 -2154 0
-2147 -2155 0
-2147 -2156 0
-2147 -2157 0
-2147 -2159 0
-2147 -2160 0
-2147 -2302 0
-2147 -2303 0
-2147 -2304 0
-2147 -2305 0
-2147 -2306 0
-2147 -2307 0
-2147 -2308 0
-2147 -2309 0
-2147 -2310 0
-2148 -2151 0
-2148 -2153 0
-2148 -2154 0
-2148 -2156 0
-2148 -2157 0
-2148 -2158 0
-2148 -2159 0
-2148 -2160 0
-2148 -2301 0
-2148 -2303 0
-2148 -2304 0
-2148 -2306 0
-2148 -2307 0
-2148 -2308 0
-2148 -2309 0
-2148 -2310 0
-2149 -2151 0
-2149 -2152 0
-2149 -2153 0
-2149 -2154 0
-2149 -2155 0
-2149 -2156 0
-2149 -2157 0
-2149 -2158 0
-2149 -2159 0
-2149 -2301 0
-2149 -2302 0
-2149 -2303 0
-2149 -2305 0
-2149 -2306 0
-2149 -2307 0
-2149 -2308 0
-2149 -2309 0
-2150 -2152 0
-2150 -2153 0
-2150 -2154 0
-2150 -2155 0
-2150 -2156 0
-2150 -2157 0
-2150 -2158 0
-2150 -2159 0
-2150 -2160 0
-2150 -2302 0
-2150 -2303 0
-2150 -2304 0
-2150 -2305 0
-2150 -2306 0
-2150 -2307 0
-2150 -2308 0
-2150 -2309 0
-2150 -2310 0
-2151 -2161 0
-2151 -2163 0
-2151 -2164 0
-2151 -2166 0
-2151 -2167 0
-2151 -2168 0
-2151 -2169 0
-2151 -2170 0
-2151 -2311 0
-2151 -2313 0
-2151 -2314 0
-2151 -2316 0
-2151 -2317 0
-2151 -2318 0
-2151 -2319 0
-2151 -2320 0
-2152 -2161 0
-2152 -2162 0
-2152 -2164 0
-2152 -2165 0
-2152 -2166 0
-2152 -2167 0
-2152 -2168 0
-2152 -2169 0
-2152 -2170 0
-2152 -2311 0
-2152 -2312 0
-2152 -2313 0
-2152 -2314 0
-2152 -2315 0
-2152 -2317 0
-2152 -2318 0
-2152 -2319 0
-2152 -2320 0
-2153 -2161 0
-2153 -2162 0
-2153 -2163 0
-2153 -2165 0
-2153 -2166 0
-2153 -2167 0
-2153 -2168 0
-2153 -2169 0
-2153 -2170 0
-2153 -2311 0
-2153 -2312 0
-2153 -2313 0
-2153 -2314 0
-2153 -2315 0
-2153 -2316 0
-2153 -2318 0
-2153 -2319 0
-2153 -2320 0
-2154 -2162 0
-2154 -2163 0
-2154 -2164 0
-2154 -2165 0
-2154 -2166 0
-2154 -2167 0
-2154 -2168 0
-2154 -2169 0
-2154 -2170 0
-2154 -2311 0
-2154 -2312 0
-2154 -2313 0
-2154 -2314 0
-2154 -2315 0
-2154 -2316 0
-2154 -2317 0
-2154 -2319 0
-2154 -2320 0
-2155 -2161 0
-2155 -2162 0
-2155 -2163 0
-2155 -2164 0
-2155 -2165 0
-2155 -2167 0
-2155 -2168 0
-2155 -2170 0
-2155 -2311 0
-2155 -2312 0
-2155 -2314 0
-2155 -2315 0
-2155 -2316 0
-2155 -2317 0
-2155 -2318 0
-2155 -2320 0
-2156 -2161 0
-2156 -2162 0
-2156 -2163 0
-2156 -2164 0
-2156 -2165 0
-2156 -2166 0
-2156 -2168 0
-2156 -2169 0
-2156 -2170 0
-2156 -2311 0
-2156 -2312 0
-2156 -2313 0
-2156 -2315 0
-2156 -2316 0
-2156 -2317 0
-2156 -2318 0
-2156 -2319 0
-2157 -2161 0
-2157 -2162 0
-2157 -2163 0
-2157 -2164 0
-2157 -2165 0
-2157 -2166 0
-2157 -2167 0
-2157 -2169 0
-2157 -2170 0
-2157 -2312 0
-2157 -2313 0
-2157 -2314 0
-2157 -2315 0
-2157 -2316 0
-2157 -2317 0
-2157 -2318 0
-2157 -2319 0
-2157 -2320 0
-2158 -2161 0
-2158 -2163 0
-2158 -2164 0
-2158 -2166 0
-2158 -2167 0
-2158 -2168 0
-2158 -2169 0
-2158 -2170 0
-2158 -2311 0
-2158 -2313 0
-2158 -2314 0
-2158 -2316 0
-2158 -2317 0
-2158 -2318 0
-2158 -2319 0
-2158 -2320 0
-2159 -2161 0
-2159 -2162 0
-2159 -2163 0
-2159 -2164 0
-2159 -2165 0
-2159 -2166 0
-2159 -2167 0
-2159 -2168 0
-2159 -2169 0
-2159 -2311 0
-2159 -2312 0
-2159 -2313 0
-2159 -2315 0
-2159 -2316 0
-2159 -2317 0
-2159 -2318 0
-2159 -2319 0
-2160 -2162 0
-2160 -2163 0
-2160 -2164 0
-2160 -2165 0
-2160 -2166 0
-2160 -2167 0
-2160 -2168 0
-2160 -2169 0
-2160 -2170 0
-2160 -2312 0
-2160 -2313 0
-2160 -2314 0
-2160 -2315 0
-2160 -2316 0
-2160 -2317 0
-2160 -2318 0
-2160 -2319 0
-2160 -2320 0
-2161 -2171 0
-2161 -2173 0
-2161 -2174 0
-2161 -2176 0
-2161 -2177 0
-2161 -2178 0
-2161 -2179 0
-2161 -2180 0
-2161 -2321 0
-2161 -2323 0
-2161 -2324 0
-2161 -2326 0
-2161 -2327 0
-2161 -2328 0
-2161 -2329 0
-2161 -2330 0
-2162 -2171 0
-2162 -2172 0
-2162 -2174 0
-2162 -2175 0
-2162 -2176 0
-2162 -2177 0
-2162 -2178 0
-2162 -2179 0
-2162 -2180 0
-2162 -2321 0
-2162 -2322 0
-2162 -2323 0
-2162 -2324 0
-2162 -2325 0
-2162 -2327 0
-2162 -2328 0
-2162 -2329 0
-2162 -2330 0
-2163 -2171 0
-2163 -2172 0
-2163 -2173 0
-2163 -2175 0
-2163 -2176 0
-2163 -2177 0
-2163 -2178 0
-2163 -2179 0
-2163 -2180 0
-2163 -2321 0
-2163 -2322 0
-2163 -2323 0
-2163 -2324 0
-2163 -2325 0
-2163 -2326 0
-2163 -2328 0
-2163 -2329 0
-2163 -2330 0
-2164 -2172 0
-2164 -2173 0
-2164 -2174 0
-2164 -2175 0
-2164 -2176 0
-2164 -2177 0
-2164 -2178 0
-2164 -2179 0
-2164 -2180 0
-2164 -2321 0
-2164 -2322 0
-2164 -2323 0
-2164 -2324 0
-2164 -2325 0
-2164 -2326 0
-2164 -2327 0
-2164 -2329 0
-2164 -2330 0
-2165 -2171 0
-2165 -2172 0
-2165 -2173 0
-2165 -2174 0
-2165 -2175 0
-2165 -2177 0
-2165 -2178 0
-2165 -2180 0
-2165 -2321 0
-2165 -2322 0
-2165 -2324 0
-2165 -2325 0
-2165 -2326 0
-2165 -2327 0
-2165 -2328 0
-2165 -2330 0
-2166 -2171 0
-2166 -2172 0
-2166 -2173 0
-2166 -2174 0
-2166 -2175 0
-2166 -2176 0
-2166 -2178 0
-2166 -2179 0
-2166 -2180 0
-2166 -2321 0
-2166 -2322 0
-2166 -2323 0
-2166 -2325 0
-2166 -2326 0
-2166 -2327 0
-2166 -2328 0
-2166 -2329 0
-2167 -2171 0
-2167 -2172 0
-2167 -2173 0
-2167 -2174 0
-2167 -2175 0
-2167 -2176 0
-2167 -2177 0
-2167 -2179 0
-2167 -2180 0
-2167 -2322 0
-2167 -2323 0
-2167 -2324 0
-2167 -2325 0
-2167 -2326 0
-2167 -2327 0
-2167 -2328 0
-2167 -2329 0
-2167 -2330 0
-2168 -2171 0
-2168 -2173 0
-2168 -2174 0
-2168 -2176 0
-2168 -2177 0
-2168 -2178 0
-2168 -2179 0
-2168 -2180 0
-2168 -2321 0
-2168 -2323 0
-2168 -2324 0
-2168 -2326 0
-2168 -2327 0
-2168 -2328 0
-2168 -2329 0
-2168 -2330 0
-2169 -2171 0
-2169 -2172 0
-2169 -2173 0
-2169 -2174 0
-2169 -2175 0
-2169 -2176 0
-2169 -2177 0
-2169 -2178 0
-2169 -2179 0
-2169 -2321 0
-2169 -2322 0
-2169 -2323 0
-2169 -2325 0
-2169 -2326 0
-2169 -2327 0
-2169 -2328 0
-2169 -2329 0
-2170 -2172 0
-2170 -2173 0
-2170 -2174 0
-2170 -2175 0
-2170 -2176 0
-2170 -2177 0
-2170 -2178 0
-2170 -2179 0
-2170 -2180 0
-2170 -2322 0
-2170 -2323 0
-2170 -2324 0
-2170 -2325 0
-2170 -2326 0
-2170 -2327 0
-2170 -2328 0
-2170 -2329 0
-2170 -2330 0
-2171 -2181 0
-2171 -2183 0
-2171 -2184 0
-2171 -2186 0
-2171 -2187 0
-2171 -2188 0
-2171 -2189 0
-2171 -2190 0
-2171 -2331 0
-2171 -2333 0
-2171 -2334 0
-2171 -2336 0
-2171 -2337 0
-2171 -2338 0
-2171 -2339 0
-2171 -2340 0
-2172 -2181 0
-2172 -2182 0
-2172 -2184 0
-2172 -2185 0
-2172 -2186 0
-2172 -2187 0
-2172 -2188 0
-2172 -2189 0
-2172 -2190 0
-2172 -2331 0
-2172 -2332 0
-2172 -2333 0
-2172 -2334 0
-2172 -2335 0
-2172 -2337 0
-2172 -2338 0
-2172 -2339 0
-2172 -2340 0
-2173 -2181 0
-2173 -2182 0
-2173 -2183 0
-2173 -2185 0
-2173 -2186 0
-2173 -2187 0
-2173 -2188 0
-2173 -2189 0
-2173 -2190 0
-2173 -2331 0
-2173 -2332 0
-2173 -2333 0
-2173 -2334 0
-2173 -2335 0
-2173 -2336 0
-2173 -2338 0
-2173 -2339 0
-2173 -2340 0
-2174 -2182 0
-2174 -2183 0
-2174 -2184 0
-2174 -2185 0
-2174 -2186 0
-2174 -2187 0
-2174 -2188 0
-2174 -2189 0
-2174 -2190 0
-2174 -2331 0
-2174 -2332 0
-2174 -2333 0
-2174 -2334 0
-2174 -2335 0
-2174 -2336 0
-2174 -2337 0
-2174 -2339 0
-2174 -2340 0
-2175 -2181 0
-2175 -2182 0
-2175 -2183 0
-2175 -2184 0
-2175 -2185 0
-2175 -2187 0
-2175 -2188 0
-2175 -2190 0
-2175 -2331 0
-2175 -2332 0
-2175 -2334 0
-2175 -2335 0
-2175 -2336 0
-2175 -2337 0
-2175 -2338 0
-2175 -2340 0
-2176 -2181 0
-2176 -2182 0
-2176 -2183 0
-2176 -2184 0
-2176 -2185 0
-2176 -2186 0
-2176 -2188 0
-2176 -2189 0
-2176 -2190 0
-2176 -2331 0
-2176 -2332 0
-2176 -2333 0
-2176 -2335 0
-2176 -2336 0
-2176 -2337 0
-2176 -2338 0
-2176 -2339 0
-2177 -2181 0
-2177 -2182 0
-2177 -2183 0
-2177 -2184 0
-2177 -2185 0
-2177 -2186 0
-2177 -2187 0
-2177 -2189 0
-2177 -2190 0
-2177 -2332 0
-2177 -2333 0
-2177 -2334 0
-2177 -2335 0
-2177 -2336 0
-2177 -2337 0
-2177 -2338 0
-2177 -2339 0
-2177 -2340 0
-2178 -2181 0
-2178 -2183 0
-2178 -2184 0
-2178 -2186 0
-2178 -2187 0
-2178 -2188 0
-2178 -2189 0
-2178 -2190 0
-2178 -2331 0
-2178 -2333 0
-2178 -2334 0
-2178 -2336 0
-2178 -2337 0
-2178 -2338 0
-2178 -2339 0
-2178 -2340 0
-2179 -2181 0
-2179 -2182 0
-2179 -2183 0
-2179 -2184 0
-2179 -2185 0
-2179 -2186 0
-2179 -2187 0
-2179 -2188 0
-2179 -2189 0
-2179 -2331 0
-2179 -2332 0
-2179 -2333 0
-2179 -2335 0
-2179 -2336 0
-2179 -2337 0
-2179 -2338 0
-2179 -2339 0
-2180 -2182 0
-2180 -2183 0
-2180 -2184 0
-2180 -2185 0
-2180 -2186 0
-2180 -2187 0
-2180 -2188 0
-2180 -2189 0
-2180 -2190 0
-2180 -2332 0
-2180 -2333 0
-2180 -2334 0
-2180 -2335 0
-2180 -2336 0
-2180 -2337 0
-2180 -2338 0
-2180 -2339 0
-2180 -2340 0
-2181 -2191 0
-2181 -2193 0
-2181 -2194 0
-2181 -2196 0
-2181 -2197 0
-2181 -2198 0
-2181 -2199 0
-2181 -2200 0
-2181 -2341 0
-2181 -2343 0
-2181 -2344 0
-2181 -2346 0
-2181 -2347 0
-2181 -2348 0
-2181 -2349 0
-2181 -2350 0
-2182 -2191 0
-2182 -2192 0
-2182 -2194 0
-2182 -2195 0
-2182 -2196 0
-2182 -2197 0
-2182 -2198 0
-2182 -2199 0
-2182 -2200 0
-2182 -2341 0
-2182 -2342 0
-2182 -2343 0
-2182 -2344 0
-2182 -2345 0
-2182 -2347 0
-2182 -2348 0
-2182 -2349 0
-2182 -2350 0
-2183 -2191 0
-2183 -2192 0
-2183 -2193 0
-2183 -2195 0
-2183 -2196 0
-2183 -2197 0
-2183 -2198 0
-2183 -2199 0
-2183 -2200 0
-2183 -2341 0
-2183 -2342 0
-2183 -2343 0
-2183 -2344 0
-2183 -2345 0
-2183 -2346 0
-2183 -2348 0
-2183 -2349 0
-2183 -2350 0
-2184 -2192 0
-2184 -2193 0
-2184 -2194 0
-2184 -2195 0
-2184 -2196 0
-2184 -2197 0
-2184 -2198 0
-2184 -2199 0
-2184 -2200 0
-2184 -2341 0
-2184 -2342 0
-2184 -2343 0
-2184 -2344 0
-2184 -2345 0
-2184 -2346 0
-2184 -2347 0
-2184 -2349 0
-2184 -2350 0
-2185 -2191 0
-2185 -2192 0
-2185 -2193 0
-2185 -2194 0
-2185 -2195 0
-2185 -2197 0
-2185 -2198 0
-2185 -2200 0
-2185 -2341 0
-2185 -2342 0
-2185 -2344 0
-2185 -2345 0
-2185 -2346 0
-2185 -2347 0
-2185 -2348 0
-2185 -2350 0
-2186 -2191 0
-2186 -2192 0
-2186 -2193 0
-2186 -2194 0
-2186 -2195 0
-2186 -2196 0
-2186 -2198 0
-2186 -2199 0
-2186 -2200 0
-2186 -2341 0
-2186 -2342 0
-2186 -2343 0
-2186 -2345 0
-2186 -2346 0
-2186 -2347 0
-2186 -2348 0
-2186 -2349 0
-2187 -2191 0
-2187 -2192 0
-2187 -2193 0
-2187 -2194 0
-2187 -2195 0
-2187 -2196 0
-2187 -2197 0
-2187 -2199 0
-2187 -2200 0
-2187 -2342 0
-2187 -2343 0
-2187 -2344 0
-2187 -2345 0
-2187 -2346 0
-2187 -2347 0
-2187 -2348 0
-2187 -2349 0
-2187 -2350 0
-2188 -2191 0
-2188 -2193 0
-2188 -2194 0
-2188 -2196 0
-2188 -2197 0
-2188 -2198 0
-2188 -2199 0
-2188 -2200 0
-2188 -2341 0
-2188 -2343 0
-2188 -2344 0
-2188 -2346 0
-2188 -2347 0
-2188 -2348 0
-2188 -2349 0
-2188 -2350 0
-2189 -2191 0
-2189 -2192 0
-2189 -2193 0
-2189 -2194 0
-2189 -2195 0
-2189 -2196 0
-2189 -2197 0
-2189 -2198 0
-2189 -2199 0
-2189 -2341 0
-2189 -2342 0
-2189 -2343 0
-2189 -2345 0
-2189 -2346 0
-2189 -2347 0
-2189 -2348 0
-2189 -2349 0
-2190 -2192 0
-2190 -2193 0
-2190 -2194 0
-2190 -2195 0
-2190 -2196 0
-2190 -2197 0
-2190 -2198 0
-2190 -2199 0
-2190 -2200 0
-2190 -2342 0
-2190 -2343 0
-2190 -2344 0
-2190 -2345 0
-2190 -2346 0
-2190 -2347 0
-2190 -2348 0
-2190 -2349 0
-2190 -2350 0
-2191 -2201 0
-2191 -2203 0
-2191 -2204 0
-2191 -2206 0
-2191 -2207 0
-2191 -2208 0
-2191 -2209 0
-2191 -2210 0
-2191 -2351 0
-2191 -2353 0
-2191 -2354 0
-2191 -2356 0
-2191 -2357 0
-2191 -2358 0
-2191 -2359 0
-2191 -2360 0
-2192 -2201 0
-2192 -2202 0
-2192 -2204 0
-2192 -2205 0
-2192 -2206 0
-2192 -2207 0
-2192 -2208 0
-2192 -2209 0
-2192 -2210 0
-2192 -2351 0
-2192 -2352 0
-2192 -2353 0
-2192 -2354 0
-2192 -2355 0
-2192 -2357 0
-2192 -2358 0
-2192 -2359 0
-2192 -2360 0
-2193 -2201 0
-2193 -2202 0
-2193 -2203 0
-2193 -2205 0
-2193 -2206 0
-2193 -2207 0
-2193 -2208 0
-2193 -2209 0
-2193 -2210 0
-2193 -2351 0
-2193 -2352 0
-2193 -2353 0
-2193 -2354 0
-2193 -2355 0
-2193 -2356 0
-2193 -2358 0
-2193 -2359 0
-2193 -2360 0
-2194 -2202 0
-2194 -2203 0
-2194 -2204 0
-2194 -2205 0
-2194 -2206 0
-2194 -2207 0
-2194 -2208 0
-2194 -2209 0
-2194 -2210 0
-2194 -2351 0
-2194 -2352 0
-2194 -2353 0
-2194 -2354 0
-2194 -2355 0
-2194 -2356 0
-2194 -2357 0
-2194 -2359 0
-2194 -2360 0
-2195 -2201 0
-2195 -2202 0
-2195 -2203 0
-2195 -2204 0
-2195 -2205 0
-2195 -2207 0
-2195 -2208 0
-2195 -2210 0
-2195 -2351 0
-2195 -2352 0
-2195 -2354 0
-2195 -2355 0
-2195 -2356 0
-2195 -2357 0
-2195 -2358 0
-2195 -2360 0
-2196 -2201 0
-2196 -2202 0
-2196 -2203 0
-2196 -2204 0
-2196 -2205 0
-2196 -2206 0
-2196 -2208 0
-2196 -2209 0
-2196 -2210 0
-2196 -2351 0
-2196 -2352 0
-2196 -2353 0
-2196 -2355 0
-2196 -2356 0
-2196 -2357 0
-2196 -2358 0
-2196 -2359 0
-2197 -2201 0
-2197 -2202 0
-2197 -2203 0
-2197 -2204 0
-2197 -2205 0
-2197 -2206 0
-2197 -2207 0
-2197 -2209 0
-2197 -2210 0
-2197 -2352 0
-2197 -2353 0
-2197 -2354 0
-2197 -2355 0
-2197 -2356 0
-2197 -2357 0
-2197 -2358 0
-2197 -2359 0
-2197 -2360 0
-2198 -2201 0
-2198 -2203 0
-2198 -2204 0
-2198 -2206 0
-2198 -2207 0
-2198 -2208 0
-2198 -2209 0
-2198 -2210 0
-2198 -2351 0
-2198 -2353 0
-2198 -2354 0
-2198 -2356 0
-2198 -2357 0
-2198 -2358 0
-2198 -2359 0
-2198 -2360 0
-2199 -2201 0
-2199 -2202 0
-2199 -2203 0
-2199 -2204 0
-2199 -2205 0
-2199 -2206 0
-2199 -2207 0
-2199 -2208 0
-2199 -2209 0
-2199 -2351 0
-2199 -2352 0
-2199 -2353 0
-2199 -2355 0
-2199 -2356 0
-2199 -2357 0
-2199 -2358 0
-2199 -2359 0
-2200 -2202 0
-2200 -2203 0
-2200 -2204 0
-2200 -2205 0
-2200 -2206 0
-2200 -2207 0
-2200 -2208 0
-2200 -2209 0
-2200 -2210 0
-2200 -2352 0
-2200 -2353 0
-2200 -2354 0
-2200 -2355 0
-2200 -2356 0
-2200 -2357 0
-2200 -2358 0
-2200 -2359 0
-2200 -2360 0
-2201 -2211 0
-2201 -2213 0
-2201 -2214 0
-2201 -2216 0
-2201 -2217 0
-2201 -2218 0
-2201 -2219 0
-2201 -2220 0
-2201 -2361 0
-2201 -2363 0
-2201 -2364 0
-2201 -2366 0
-2201 -2367 0
-2201 -2368 0
-2201 -2369 0
-2201 -2370 0
-2202 -2211 0
-2202 -2212 0
-2202 -2214 0
-2202 -2215 0
-2202 -2216 0
-2202 -2217 0
-2202 -2218 0
-2202 -2219 0
-2202 -2220 0
-2202 -2361 0
-2202 -2362 0
-2202 -2363 0
-2202 -2364 0
-2202 -2365 0
-2202 -2367 0
-2202 -2368 0
-2202 -2369 0
-2202 -2370 0
-2203 -2211 0
-2203 -2212 0
-2203 -2213 0
-2203 -2215 0
-2203 -2216 0
-2203 -2217 0
-2203 -2218 0
-2203 -2219 0
-2203 -2220 0
-2203 -2361 0
-2203 -2362 0
-2203 -2363 0
-2203 -2364 0
-2203 -2365 0
-2203 -2366 0
-2203 -2368 0
-2203 -2369 0
-2203 -2370 0
-2204 -2212 0
-2204 -2213 0
-2204 -2214 0
-2204 -2215 0
-2204 -2216 0
-2204 -2217 0
-2204 -2218 0
-2204 -2219 0
-2204 -2220 0
-2204 -2361 0
-2204 -2362 0
-2204 -2363 0
-2204 -2364 0
-2204 -2365 0
-2204 -2366 0
-2204 -2367 0
-2204 -2369 0
-2204 -2370 0
-2205 -2211 0
-2205 -2212 0
-2205 -2213 0
-2205 -2214 0
-2205 -2215 0
-2205 -2217 0
-2205 -2218 0
-2205 -2220 0
-2205 -2361 0
-2205 -2362 0
-2205 -2364 0
-2205 -2365 0
-2205 -2366 0
-2205 -2367 0
-2205 -2368 0
-2205 -2370 0
-2206 -2211 0
-2206 -2212 0
-2206 -2213 0
-2206 -2214 0
-2206 -2215 0
-2206 -2216 0
-2206 -2218 0
-2206 -2219 0
-2206 -2220 0
-2206 -2361 0
-2206 -2362 0
-2206 -2363 0
-2206 -2365 0
-2206 -2366 0
-2206 -2367 0
-2206 -2368 0
-2206 -2369 0
-2207 -2211 0
-2207 -2212 0
-2207 -2213 0
-2207 -2214 0
-2207 -2215 0
-2207 -2216 0
-2207 -2217 0
-2207 -2219 0
-2207 -2220 0
-2207 -2362 0
-2207 -2363 0
-2207 -2364 0
-2207 -2365 0
-2207 -2366 0
-2207 -2367 0
-2207 -2368 0
-2207 -2369 0
-2207 -2370 0
-2208 -2211 0
-2208 -2213 0
-2208 -2214 0
-2208 -2216 0
-2208 -2217 0
-2208 -2218 0
-2208 -2219 0
-2208 -2220 0
-2208 -2361 0
-2208 -2363 0
-2208 -2364 0
-2208 -2366 0
-2208 -2367 0
-2208 -2368 0
-2208 -2369 0
-2208 -2370 0
-2209 -2211 0
-2209 -2212 0
-2209 -2213 0
-2209 -2214 0
-2209 -2215 0
-2209 -2216 0
-2209 -2217 0
-2209 -2218 0
-2209 -2219 0
-2209 -2361 0
-2209 -2362 0
-2209 -2363 0
-2209 -2365 0
-2209 -2366 0
-2209 -2367 0
-2209 -2368 0
-2209 -2369 0
-2210 -2212 0
-2210 -2213 0
-2210 -2214 0
-2210 -2215 0
-2210 -2216 0
-2210 -2217 0
-2210 -2218 0
-2210 -2219 0
-2210 -2220 0
-2210 -2362 0
-2210 -2363 0
-2210 -2364 0
-2210 -2365 0
-2210 -2366 0
-2210 -2367 0
-2210 -2368 0
-2210 -2369 0
-2210 -2370 0
-2211 -2221 0
-2211 -2223 0
-2211 -2224 0
-2211 -2226 0
-2211 -2227 0
-2211 -2228 0
-2211 -2229 0
-2211 -2230 0
-2211 -2371 0
-2211 -2373 0
-2211 -2374 0
-2211 -2376 0
-2211 -2377 0
-2211 -2378 0
-2211 -2379 0
-2211 -2380 0
-2212 -2221 0
-2212 -2222 0
-2212 -2224 0
-2212 -2225 0
-2212 -2226 0
-2212 -2227 0
-2212 -2228 0
-2212 -2229 0
-2212 -2230 0
-2212 -2371 0
-2212 -2372 0
-2212 -2373 0
-2212 -2374 0
-2212 -2375 0
-2212 -2377 0
-2212 -2378 0
-2212 -2379 0
-2212 -2380 0
-2213 -2221 0
-2213 -2222 0
-2213 -2223 0
-2213 -2225 0
-2213 -2226 0
-2213 -2227 0
-2213 -2228 0
-2213 -2229 0
-2213 -2230 0
-2213 -2371 0
-2213 -2372 0
-2213 -2373 0
-2213 -2374 0
-2213 -2375 0
-2213 -2376 0
-2213 -2378 0
-2213 -2379 0
-2213 -2380 0
-2214 -2222 0
-2214 -2223 0
-2214 -2224 0
-2214 -2225 0
-2214 -2226 0
-2214 -2227 0
-2214 -2228 0
-2214 -2229 0
-2214 -2230 0
-2214 -2371 0
-2214 -2372 0
-2214 -2373 0
-2214 -2374 0
-2214 -2375 0
-2214 -2376 0
-2214 -2377 0
-2214 -2379 0
-2214 -2380 0
-2215 -2221 0
-2215 -2222 0
-2215 -2223 0
-2215 -2224 0
-2215 -2225 0
-2215 -2227 0
-2215 -2228 0
-2215 -2230 0
-2215 -2371 0
-2215 -2372 0
-2215 -2374 0
-2215 -2375 0
-2215 -2376 0
-2215 -2377 0
-2215 -2378 0
-2215 -2380 0
-2216 -2221 0
-2216 -2222 0
-2216 -2223 0
-2216 -2224 0
-2216 -2225 0
-2216 -2226 0
-2216 -2228 0
-2216 -2229 0
-2216 -2230 0
-2216 -2371 0
-2216 -2372 0
-2216 -2373 0
-2216 -2375 0
-2216 -2376 0
-2216 -2377 0
-2216 -2378 0
-2216 -2379 0
-2217 -2221 0
-2217 -2222 0
-2217 -2223 0
-2217 -2224 0
-2217 -2225 0
-2217 -2226 0
-2217 -2227 0
-2217 -2229 0
-2217 -2230 0
-2217 -2372 0
-2217 -2373 0
-2217 -2374 0
-2217 -2375 0
-2217 -2376 0
-2217 -2377 0
-2217 -2378 0
-2217 -2379 0
-2217 -2380 0
-2218 -2221 0
-2218 -2223 0
-2218 -2224 0
-2218 -2226 0
-2218 -2227 0
-2218 -2228 0
-2218 -2229 0
-2218 -2230 0
-2218 -2371 0
-2218 -2373 0
-2218 -2374 0
-2218 -2376 0
-2218 -2377 0
-2218 -2378 0
-2218 -2379 0
-2218 -2380 0
-2219 -2221 0
-2219 -2222 0
-2219 -2223 0
-2219 -2224 0
-2219 -2225 0
-2219 -2226 0
-2219 -2227 0
-2219 -2228 0
-2219 -2229 0
-2219 -2371 0
-2219 -2372 0
-2219 -2373 0
-2219 -2375 0
-2219 -2376 0
-2219 -2377 0
-2219 -2378 0
-2219 -2379 0
-2220 -2222 0
-2220 -2223 0
-2220 -2224 0
-2220 -2225 0
-2220 -2226 0
-2220 -2227 0
-2220 -2228 0
-2220 -2229 0
-2220 -2230 0
-2220 -2372 0
-2220 -2373 0
-2220 -2374 0
-2220 -2375 0
-2220 -2376 0
-2220 -2377 0
-2220 -2378 0
-2220 -2379 0
-2220 -2380 0
-2221 -2231 0
-2221 -2233 0
-2221 -2234 0
-2221 -2236 0
-2221 -2237 0
-2221 -2238 0
-2221 -2239 0
-2221 -2240 0
-2221 -2381 0
-2221 -2383 0
-2221 -2384 0
-2221 -2386 0
-2221 -2387 0
-2221 -2388 0
-2221 -2389 0
-2221 -2390 0
-2222 -2231 0
-2222 -2232 0
-2222 -2234 0
-2222 -2235 0
-2222 -2236 0
-2222 -2237 0
-2222 -2238 0
-2222 -2239 0
-2222 -2240 0
-2222 -2381 0
-2222 -2382 0
-2222 -2383 0
-2222 -2384 0
-2222 -2385 0
-2222 -2387 0
-2222 -2388 0
-2222 -2389 0
-2222 -2390 0
-2223 -2231 0
-2223 -2232 0
-2223 -2233 0
-2223 -2235 0
-2223 -2236 0
-2223 -2237 0
-2223 -2238 0
-2223 -2239 0
-2223 -2240 0
-2223 -2381 0
-2223 -2382 0
-2223 -2383 0
-2223 -2384 0
-2223 -2385 0
-2223 -2386 0
-2223 -2388 0
-2223 -2389 0
-2223 -2390 0
-2224 -2232 0
-2224 -2233 0
-2224 -2234 0
-2224 -2235 0
-2224 -2236 0
-2224 -2237 0
-2224 -2238 0
-2224 -2239 0
-2224 -2240 0
-2224 -2381 0
-2224 -2382 0
-2224 -2383 0
-2224 -2384 0
-2224 -2385 0
-2224 -2386 0
-2224 -2387 0
-2224 -2389 0
-2224 -2390 0
-2225 -2231 0
-2225 -2232 0
-2225 -2233 0
-2225 -2234 0
-2225 -2235 0
-2225 -2237 0
-2225 -2238 0
-2225 -2240 0
-2225 -2381 0
-2225 -2382 0
-2225 -2384 0
-2225 -2385 0
-2225 -2386 0
-2225 -2387 0
-2225 -2388 0
-2225 -2390 0
-2226 -2231 0
-2226 -2232 0
-2226 -2233 0
-2226 -2234 0
-2226 -2235 0
-2226 -2236 0
-2226 -2238 0
-2226 -2239 0
-2226 -2240 0
-2226 -2381 0
-2226 -2382 0
-2226 -2383 0
-2226 -2385 0
-2226 -2386 0
-2226 -2387 0
-2226 -2388 0
-2226 -2389 0
-2227 -2231 0
-2227 -2232 0
-2227 -2233 0
-2227 -2234 0
-2227 -2235 0
-2227 -2236 0
-2227 -2237 0
-2227 -2239 0
-2227 -2240 0
-2227 -2382 0
-2227 -2383 0
-2227 -2384 0
-2227 -2385 0
-2227 -2386 0
-2227 -2387 0
-2227 -2388 0
-2227 -2389 0
-2227 -2390 0
-2228 -2231 0
-2228 -2233 0
-2228 -2234 0
-2228 -2236 0
-2228 -2237 0
-2228 -2238 0
-2228 -2239 0
-2228 -2240 0
-2228 -2381 0
-2228 -2383 0
-2228 -2384 0
-2228 -2386 0
-2228 -2387 0
-2228 -2388 0
-2228 -2389 0
-2228 -2390 0
-2229 -2231 0
-2229 -2232 0
-2229 -2233 0
-2229 -2234 0
-2229 -2235 0
-2229 -2236 0
-2229 -2237 0
-2229 -2238 0
-2229 -2239 0
-2229 -2381 0
-2229 -2382 0
-2229 -2383 0
-2229 -2385 0
-2229 -2386 0
-2229 -2387 0
-2229 -2388 0
-2229 -2389 0
-2230 -2232 0
-2230 -2233 0
-2230 -2234 0
-2230 -2235 0
-2230 -2236 0
-2230 -2237 0
-2230 -2238 0
-2230 -2239 0
-2230 -2240 0
-2230 -2382 0
-2230 -2383 0
-2230 -2384 0
-2230 -2385 0
-2230 -2386 0
-2230 -2387 0
-2230 -2388 0
-2230 -2389 0
-2230 -2390 0
-2231 -2391 0
-2231 -2393 0
-2231 -2394 0
-2231 -2396 0
-2231 -2397 0
-2231 -2398 0
-2231 -2399 0
-2231 -2400 0
-2232 -2391 0
-2232 -2392 0
-2232 -2393 0
-2232 -2394 0
-2232 -2395 0
-2232 -2397 0
-2232 -2398 0
-2232 -2399 0
-2232 -2400 0
-2233 -2391 0
-2233 -2392 0
-2233 -2393 0
-2233 -2394 0
-2233 -2395 0
-2233 -2396 0
-2233 -2398 0
-2233 -2399 0
-2233 -2400 0
-2234 -2391 0
-2234 -2392 0
-2234 -2393 0
-2234 -2394 0
-2234 -2395 0
-2234 -2396 0
-2234 -2397 0
-2234 -2399 0
-2234 -2400 0
-2235 -2391 0
-2235 -2392 0
-2235 -2394 0
-2235 -2395 0
-2235 -2396 0
-2235 -2397 0
-2235 -2398 0
-2235 -2400 0
-2236 -2391 0
-2236 -2392 0
-2236 -2393 0
-2236 -2395 0
-2236 -2396 0
-2236 -2397 0
-2236 -2398 0
-2236 -2399 0
-2237 -2392 0
-2237 -2393 0
-2237 -2394 0
-2237 -2395 0
-2237 -2396 0
-2237 -2397 0
-2237 -2398 0
-2237 -2399 0
-2237 -2400 0
-2238 -2391 0
-2238 -2393 0
-2238 -2394 0
-2238 -2396 0
-2238 -2397 0
-2238 -2398 0
-2238 -2399 0
-2238 -2400 0
-2239 -2391 0
-2239 -2392 0
-2239 -2393 0
-2239 -2395 0
-2239 -2396 0
-2239 -2397 0
-2239 -2398 0
-2239 -2399 0
-2240 -2392 0
-2240 -2393 0
-2240 -2394 0
-2240 -2395 0
-2240 -2396 0
-2240 -2397 0
-2240 -2398 0
-2240 -2399 0
-2240 -2400 0
-2241 -2251 0
-2241 -2253 0
-2241 -2254 0
-2241 -2256 0
-2241 -2257 0
-2241 -2258 0
-2241 -2259 0
-2241 -2260 0
-2241 -2401 0
-2241 -2403 0
-2241 -2404 0
-2241 -2406 0
-2241 -2407 0
-2241 -2408 0
-2241 -2409 0
-2241 -2410 0
-2242 -2251 0
-2242 -2252 0
-2242 -2254 0
-2242 -2255 0
-2242 -2256 0
-2242 -2257 0
-2242 -2258 0
-2242 -2259 0
-2242 -2260 0
-2242 -2401 0
-2242 -2402 0
-2242 -2403 0
-2242 -2404 0
-2242 -2405 0
-2242 -2407 0
-2242 -2408 0
-2242 -2409 0
-2242 -2410 0
-2243 -2251 0
-2243 -2252 0
-2243 -2253 0
-2243 -2255 0
-2243 -2256 0
-2243 -2257 0
-2243 -2258 0
-2243 -2259 0
-2243 -2260 0
-2243 -2401 0
-2243 -2402 0
-2243 -2403 0
-2243 -2404 0
-2243 -2405 0
-2243 -2406 0
-2243 -2408 0
-2243 -2409 0
-2243 -2410 0
-2244 -2252 0
-2244 -2253 0
-2244 -2254 0
-2244 -2255 0
-2244 -2256 0
-2244 -2257 0
-2244 -2258 0
-2244 -2259 0
-2244 -2260 0
-2244 -2401 0
-2244 -2402 0
-2244 -2403 0
-2244 -2404 0
-2244 -2405 0
-2244 -2406 0
-2244 -2407 0
-2244 -2409 0
-2244 -2410 0
-2245 -2251 0
-2245 -2252 0
-2245 -2253 0
-2245 -2254 0
-2245 -2255 0
-2245 -2257 0
-2245 -2258 0
-2245 -2260 0
-2245 -2401 0
-2245 -2402 0
-2245 -2404 0
-2245 -2405 0
-2245 -2406 0
-2245 -2407 0
-2245 -2408 0
-2245 -2410 0
-2246 -2251 0
-2246 -2252 0
-2246 -2253 0
-2246 -2254 0
-2246 -2255 0
-2246 -2256 0
-2246 -2258 0
-2246 -2259 0
-2246 -2260 0
-2246 -2401 0
-2246 -2402 0
-2246 -2403 0
-2246 -2405 0
-2246 -2406 0
-2246 -2407 0
-2246 -2408 0
-2246 -2409 0
-2247 -2251 0
-2247 -2252 0
-2247 -2253 0
-2247 -2254 0
-2247 -2255 0
-2247 -2256 0
-2247 -2257 0
-2247 -2259 0
-2247 -2260 0
-2247 -2402 0
-2247 -2403 0
-2247 -2404 0
-2247 -2405 0
-2247 -2406 0
-2247 -2407 0
-2247 -2408 0
-2247 -2409 0
-2247 -2410 0
-2248 -2251 0
-2248 -2253 0
-2248 -2254 0
-2248 -2256 0
-2248 -2257 0
-2248 -2258 0
-2248 -2259 0
-2248 -2260 0
-2248 -2401 0
-2248 -2403 0
-2248 -2404 0
-2248 -2406 0
-2248 -2407 0
-2248 -2408 0
-2248 -2409 0
-2248 -2410 0
-2249 -2251 0
-2249 -2252 0
-2249 -2253 0
-2249 -2254 0
-2249 -2255 0
-2249 -2256 0
-2249 -2257 0
-2249 -2258 0
-2249 -2259 0
-2249 -2401 0
-2249 -2402 0
-2249 -2403 0
-2249 -2405 0
-2249 -2406 0
-2249 -2407 0
-2249 -2408 0
-2249 -2409 0
-2250 -2252 0
-2250 -2253 0
-2250 -2254 0
-2250 -2255 0
-2250 -2256 0
-2250 -2257 0
-2250 -2258 0
-2250 -2259 0
-2250 -2260 0
-2250 -2402 0
-2250 -2403 0
-2250 -2404 0
-2250 -2405 0
-2250 -2406 0
-2250 -2407 0
-2250 -2408 0
-2250 -2409 0
-2250 -2410 0
-2251 -2261 0
-2251 -2263 0
-2251 -2264 0
-2251 -2266 0
-2251 -2267 0
-2251 -2268 0
-2251 -2269 0
-2251 -2270 0
-2251 -2411 0
-2251 -2413 0
-2251 -2414 0
-2251 -2416 0
-2251 -2417 0
-2251 -2418 0
-2251 -2419 0
-2251 -2420 0
-2252 -2261 0
-2252 -2262 0
-2252 -2264 0
-2252 -2265 0
-2252 -2266 0
-2252 -2267 0
-2252 -2268 0
-2252 -2269 0
-2252 -2270 0
-2252 -2411 0
-2252 -2412 0
-2252 -2413 0
-2252 -2414 0
-2252 -2415 0
-2252 -2417 0
-2252 -2418 0
-2252 -2419 0
-2252 -2420 0
-2253 -2261 0
-2253 -2262 0
-2253 -2263 0
-2253 -2265 0
-2253 -2266 0
-2253 -2267 0
-2253 -2268 0
-2253 -2269 0
-2253 -2270 0
-2253 -2411 0
-2253 -2412 0
-2253 -2413 0
-2253 -2414 0
-2253 -2415 0
-2253 -2416 0
-2253 -2418 0
-2253 -2419 0
-2253 -2420 0
-2254 -2262 0
-2254 -2263 0
-2254 -2264 0
-2254 -2265 0
-2254 -2266 0
-2254 -2267 0
-2254 -2268 0
-2254 -2269 0
-2254 -2270 0
-2254 -2411 0
-2254 -2412 0
-2254 -2413 0
-2254 -2414 0
-2254 -2415 0
-2254 -2416 0
-2254 -2417 0
-2254 -2419 0
-2254 -2420 0
-2255 -2261 0
-2255 -2262 0
-2255 -2263 0
-2255 -2264 0
-2255 -2265 0
-2255 -2267 0
-2255 -2268 0
-2255 -2270 0
-2255 -2411 0
-2255 -2412 0
-2255 -2414 0
-2255 -2415 0
-2255 -2416 0
-2255 -2417 0
-2255 -2418 0
-2255 -2420 0
-2256 -2261 0
-2256 -2262 0
-2256 -2263 0
-2256 -2264 0
-2256 -2265 0
-2256 -2266 0
-2256 -2268 0
-2256 -2269 0
-2256 -2270 0
-2256 -2411 0
-2256 -2412 0
-2256 -2413 0
-2256 -2415 0
-2256 -2416 0
-2256 -2417 0
-2256 -2418 0
-2256 -2419 0
-2257 -2261 0
-2257 -2262 0
-2257 -2263 0
-2257 -2264 0
-2257 -2265 0
-2257 -2266 0
-2257 -2267 0
-2257 -2269 0
-2257 -2270 0
-2257 -2412 0
-2257 -2413 0
-2257 -2414 0
-2257 -2415 0
-2257 -2416 0
-2257 -2417 0
-2257 -2418 0
-2257 -2419 0
-2257 -2420 0
-2258 -2261 0
-2258 -2263 0
-2258 -2264 0
-2258 -2266 0
-2258 -2267 0
-2258 -2268 0
-2258 -2269 0
-2258 -2270 0
-2258 -2411 0
-2258 -2413 0
-2258 -2414 0
-2258 -2416 0
-2258 -2417 0
-2258 -2418 0
-2258 -2419 0
-2258 -2420 0
-2259 -2261 0
-2259 -2262 0
-2259 -2263 0
-2259 -2264 0
-2259 -2265 0
-2259 -2266 0
-2259 -2267 0
-2259 -2268 0
-2259 -2269 0
-2259 -2411 0
-2259 -2412 0
-2259 -2413 0
-2259 -2415 0
-2259 -2416 0
-2259 -2417 0
-2259 -2418 0
-2259 -2419 0
-2260 -2262 0
-2260 -2263 0
-2260 -2264 0
-2260 -2265 0
-2260 -2266 0
-2260 -2267 0
-2260 -2268 0
-2260 -2269 0
-2260 -2270 0
-2260 -2412 0
-2260 -2413 0
-2260 -2414 0
-2260 -2415 0
-2260 -2416 0
-2260 -2417 0
-2260 -2418 0
-2260 -2419 0
-2260 -2420 0
-2261 -2271 0
-2261 -2273 0
-2261 -2274 0
-2261 -2276 0
-2261 -2277 0
-2261 -2278 0
-2261 -2279 0
-2261 -2280 0
-2261 -2421 0
-2261 -2423 0
-2261 -2424 0
-2261 -2426 0
-2261 -2427 0
-2261 -2428 0
-2261 -2429 0
-2261 -2430 0
-2262 -2271 0
-2262 -2272 0
-2262 -2274 0
-2262 -2275 0
-2262 -2276 0
-2262 -2277 0
-2262 -2278 0
-2262 -2279 0
-2262 -2280 0
-2262 -2421 0
-2262 -2422 0
-2262 -2423 0
-2262 -2424 0
-2262 -2425 0
-2262 -2427 0
-2262 -2428 0
-2262 -2429 0
-2262 -2430 0
-2263 -2271 0
-2263 -2272 0
-2263 -2273 0
-2263 -2275 0
-2263 -2276 0
-2263 -2277 0
-2263 -2278 0
-2263 -2279 0
-2263 -2280 0
-2263 -2421 0
-2263 -2422 0
-2263 -2423 0
-2263 -2424 0
-2263 -2425 0
-2263 -2426 0
-2263 -2428 0
-2263 -2429 0
-2263 -2430 0
-2264 -2272 0
-2264 -2273 0
-2264 -2274 0
-2264 -2275 0
-2264 -2276 0
-2264 -2277 0
-2264 -2278 0
-2264 -2279 0
-2264 -2280 0
-2264 -2421 0
-2264 -2422 0
-2264 -2423 0
-2264 -2424 0
-2264 -2425 0
-2264 -2426 0
-2264 -2427 0
-2264 -2429 0
-2264 -2430 0
-2265 -2271 0
-2265 -2272 0
-2265 -2273 0
-2265 -2274 0
-2265 -2275 0
-2265 -2277 0
-2265 -2278 0
-2265 -2280 0
-2265 -2421 0
-2265 -2422 0
-2265 -2424 0
-2265 -2425 0
-2265 -2426 0
-2265 -2427 0
-2265 -2428 0
-2265 -2430 0
-2266 -2271 0
-2266 -2272 0
-2266 -2273 0
-2266 -2274 0
-2266 -2275 0
-2266 -2276 0
-2266 -2278 0
-2266 -2279 0
-2266 -2280 0
-2266 -2421 0
-2266 -2422 0
-2266 -2423 0
-2266 -2425 0
-2266 -2426 0
-2266 -2427 0
-2266 -2428 0
-2266 -2429 0
-2267 -2271 0
-2267 -2272 0
-2267 -2273 0
-2267 -2274 0
-2267 -2275 0
-2267 -2276 0
-2267 -2277 0
-2267 -2279 0
-2267 -2280 0
-2267 -2422 0
-2267 -2423 0
-2267 -2424 0
-2267 -2425 0
-2267 -2426 0
-2267 -2427 0
-2267 -2428 0
-2267 -2429 0
-2267 -2430 0
-2268 -2271 0
-2268 -2273 0
-2268 -2274 0
-2268 -2276 0
-2268 -2277 0
-2268 -2278 0
-2268 -2279 0
-2268 -2280 0
-2268 -2421 0
-2268 -2423 0
-2268 -2424 0
-2268 -2426 0
-2268 -2427 0
-2268 -2428 0
-2268 -2429 0
-2268 -2430 0
-2269 -2271 0
-2269 -2272 0
-2269 -2273 0
-2269 -2274 0
-2269 -2275 0
-2269 -2276 0
-2269 -2277 0
-2269 -2278 0
-2269 -2279 0
-2269 -2421 0
-2269 -2422 0
-2269 -2423 0
-2269 -2425 0
-2269 -2426 0
-2269 -2427 0
-2269 -2428 0
-2269 -2429 0
-2270 -2272 0
-2270 -2273 0
-2270 -2274 0
-2270 -2275 0
-2270 -2276 0
-2270 -2277 0
-2270 -2278 0
-2270 -2279 0
-2270 -2280 0
-2270 -2422 0
-2270 -2423 0
-2270 -2424 0
-2270 -2425 0
-2270 -2426 0
-2270 -2427 0
-2270 -2428 0
-2270 -2429 0
-2270 -2430 0
-2271 -2281 0
-2271 -2283 0
-2271 -2284 0
-2271 -2286 0
-2271 -2287 0
-2271 -2288 0
-2271 -2289 0
-2271 -2290 0
-2271 -2431 0
-2271 -2433 0
-2271 -2434 0
-2271 -2436 0
-2271 -2437 0
-2271 -2438 0
-2271 -2439 0
-2271 -2440 0
-2272 -2281 0
-2272 -2282 0
-2272 -2284 0
-2272 -2285 0
-2272 -2286 0
-2272 -2287 0
-2272 -2288 0
-2272 -2289 0
-2272 -2290 0
-2272 -2431 0
-2272 -2432 0
-2272 -2433 0
-2272 -2434 0
-2272 -2435 0
-2272 -2437 0
-2272 -2438 0
-2272 -2439 0
-2272 -2440 0
-2273 -2281 0
-2273 -2282 0
-2273 -2283 0
-2273 -2285 0
-2273 -2286 0
-2273 -2287 0
-2273 -2288 0
-2273 -2289 0
-2273 -2290 0
-2273 -2431 0
-2273 -2432 0
-2273 -2433 0
-2273 -2434 0
-2273 -2435 0
-2273 -2436 0
-2273 -2438 0
-2273 -2439 0
-2273 -2440 0
-2274 -2282 0
-2274 -2283 0
-2274 -2284 0
-2274 -2285 0
-2274 -2286 0
-2274 -2287 0
-2274 -2288 0
-2274 -2289 0
-2274 -2290 0
-2274 -2431 0
-2274 -2432 0
-2274 -2433 0
-2274 -2434 0
-2274 -2435 0
-2274 -2436 0
-2274 -2437 0
-2274 -2439 0
-2274 -2440 0
-2275 -2281 0
-2275 -2282 0
-2275 -2283 0
-2275 -2284 0
-2275 -2285 0
-2275 -2287 0
-2275 -2288 0
-2275 -2290 0
-2275 -2431 0
-2275 -2432 0
-2275 -2434 0
-2275 -2435 0
-2275 -2436 0
-2275 -2437 0
-2275 -2438 0
-2275 -2440 0
-2276 -2281 0
-2276 -2282 0
-2276 -2283 0
-2276 -2284 0
-2276 -2285 0
-2276 -2286 0
-2276 -2288 0
-2276 -2289 0
-2276 -2290 0
-2276 -2431 0
-2276 -2432 0
-2276 -2433 0
-2276 -2435 0
-2276 -2436 0
-2276 -2437 0
-2276 -2438 0
-2276 -2439 0
-2277 -2281 0
-2277 -2282 0
-2277 -2283 0
-2277 -2284 0
-2277 -2285 0
-2277 -2286 0
-2277 -2287 0
-2277 -2289 0
-2277 -2290 0
-2277 -2432 0
-2277 -2433 0
-2277 -2434 0
-2277 -2435 0
-2277 -2436 0
-2277 -2437 0
-2277 -2438 0
-2277 -2439 0
-2277 -2440 0
-2278 -2281 0
-2278 -2283 0
-2278 -2284 0
-2278 -2286 0
-2278 -2287 0
-2278 -2288 0
-2278 -2289 0
-2278 -2290 0
-2278 -2431 0
-2278 -2433 0
-2278 -2434 0
-2278 -2436 0
-2278 -2437 0
-2278 -2438 0
-2278 -2439 0
-2278 -2440 0
-2279 -2281 0
-2279 -2282 0
-2279 -2283 0
-2279 -2284 0
-2279 -2285 0
-2279 -2286 0
-2279 -2287 0
-2279 -2288 0
-2279 -2289 0
-2279 -2431 0
-2279 -2432 0
-2279 -2433 0
-2279 -2435 0
-2279 -2436 0
-2279 -2437 0
-2279 -2438 0
-2279 -2439 0
-2280 -2282 0
-2280 -2283 0
-2280 -2284 0
-2280 -2285 0
-2280 -2286 0
-2280 -2287 0
-2280 -2288 0
-2280 -2289 0
-2280 -2290 0
-2280 -2432 0
-2280 -2433 0
-2280 -2434 0
-2280 -2435 0
-2280 -2436 0
-2280 -2437 0
-2280 -2438 0
-2280 -2439 0
-2280 -2440 0
-2281 -2291 0
-2281 -2293 0
-2281 -2294 0
-2281 -2296 0
-2281 -2297 0
-2281 -2298 0
-2281 -2299 0
-2281 -2300 0
-2281 -2441 0
-2281 -2443 0
-2281 -2444 0
-2281 -2446 0
-2281 -2447 0
-2281 -2448 0
-2281 -2449 0
-2281 -2450 0
-2282 -2291 0
-2282 -2292 0
-2282 -2294 0
-2282 -2295 0
-2282 -2296 0
-2282 -2297 0
-2282 -2298 0
-2282 -2299 0
-2282 -2300 0
-2282 -2441 0
-2282 -2442 0
-2282 -2443 0
-2282 -2444 0
-2282 -2445 0
-2282 -2447 0
-2282 -2448 0
-2282 -2449 0
-2282 -2450 0
-2283 -2291 0
-2283 -2292 0
-2283 -2293 0
-2283 -2295 0
-2283 -2296 0
-2283 -2297 0
-2283 -2298 0
-2283 -2299 0
-2283 -2300 0
-2283 -2441 0
-2283 -2442 0
-2283 -2443 0
-2283 -2444 0
-2283 -2445 0
-2283 -2446 0
-2283 -2448 0
-2283 -2449 0
-2283 -2450 0
-2284 -2292 0
-2284 -2293 0
-2284 -2294 0
-2284 -2295 0
-2284 -2296 0
-2284 -2297 0
-2284 -2298 0
-2284 -2299 0
-2284 -2300 0
-2284 -2441 0
-2284 -2442 0
-2284 -2443 0
-2284 -2444 0
-2284 -2445 0
-2284 -2446 0
-2284 -2447 0
-2284 -2449 0
-2284 -2450 0
-2285 -2291 0
-2285 -2292 0
-2285 -2293 0
-2285 -2294 0
-2285 -2295 0
-2285 -2297 0
-2285 -2298 0
-2285 -2300 0
-2285 -2441 0
-2285 -2442 0
-2285 -2444 0
-2285 -2445 0
-2285 -2446 0
-2285 -2447 0
-2285 -2448 0
-2285 -2450 0
-2286 -2291 0
-2286 -2292 0
-2286 -2293 0
-2286 -2294 0
-2286 -2295 0
-2286 -2296 0
-2286 -2298 0
-2286 -2299 0
-2286 -2300 0
-2286 -2441 0
-2286 -2442 0
-2286 -2443 0
-2286 -2445 0
-2286 -2446 0
-2286 -2447 0
-2286 -2448 0
-2286 -2449 0
-2287 -2291 0
-2287 -2292 0
-2287 -2293 0
-2287 -2294 0
-2287 -2295 0
-2287 -2296 0
-2287 -2297 0
-2287 -2299 0
-2287 -2300 0
-2287 -2442 0
-2287 -2443 0
-2287 -2444 0
-2287 -2445 0
-2287 -2446 0
-2287 -2447 0
-2287 -2448 0
-2287 -2449 0
-2287 -2450 0
-2288 -2291 0
-2288 -2293 0
-2288 -2294 0
-2288 -2296 0
-2288 -2297 0
-2288 -2298 0
-2288 -2299 0
-2288 -2300 0
-2288 -2441 0
-2288 -2443 0
-2288 -2444 0
-2288 -2446 0
-2288 -2447 0
-2288 -2448 0
-2288 -2449 0
-2288 -2450 0
-2289 -2291 0
-2289 -2292 0
-2289 -2293 0
-2289 -2294 0
-2289 -2295 0
-2289 -2296 0
-2289 -2297 0
-2289 -2298 0
-2289 -2299 0
-2289 -2441 0
-2289 -2442 0
-2289 -2443 0
-2289 -2445 0
-2289 -2446 0
-2289 -2447 0
-2289 -2448 0
-2289 -2449 0
-2290 -2292 0
-2290 -2293 0
-2290 -2294 0
-2290 -2295 0
-2290 -2296 0
-2290 -2297 0
-2290 -2298 0
-2290 -2299 0
-2290 -2300 0
-2290 -2442 0
-2290 -2443 0
-2290 -2444 0
-2290 -2445 0
-2290 -2446 0
-2290 -2447 0
-2290 -2448 0
-2290 -2449 0
-2290 -2450 0
-2291 -2301 0
-2291 -2303 0
-2291 -2304 0
-2291 -2306 0
-2291 -2307 0
-2291 -2308 0
-2291 -2309 0
-2291 -2310 0
-2291 -2451 0
-2291 -2453 0
-2291 -2454 0
-2291 -2456 0
-2291 -2457 0
-2291 -2458 0
-2291 -2459 0
-2291 -2460 0
-2292 -2301 0
-2292 -2302 0
-2292 -2304 0
-2292 -2305 0
-2292 -2306 0
-2292 -2307 0
-2292 -2308 0
-2292 -2309 0
-2292 -2310 0
-2292 -2451 0
-2292 -2452 0
-2292 -2453 0
-2292 -2454 0
-2292 -2455 0
-2292 -2457 0
-2292 -2458 0
-2292 -2459 0
-2292 -2460 0
-2293 -2301 0
-2293 -2302 0
-2293 -2303 0
-2293 -2305 0
-2293 -2306 0
-2293 -2307 0
-2293 -2308 0
-2293 -2309 0
-2293 -2310 0
-2293 -2451 0
-2293 -2452 0
-2293 -2453 0
-2293 -2454 0
-2293 -2455 0
-2293 -2456 0
-2293 -2458 0
-2293 -2459 0
-2293 -2460 0
-2294 -2302 0
-2294 -2303 0
-2294 -2304 0
-2294 -2305 0
-2294 -2306 0
-2294 -2307 0
-2294 -2308 0
-2294 -2309 0
-2294 -2310 0
-2294 -2451 0
-2294 -2452 0
-2294 -2453 0
-2294 -2454 0
-2294 -2455 0
-2294 -2456 0
-2294 -2457 0
-2294 -2459 0
-2294 -2460 0
-2295 -2301 0
-2295 -2302 0
-2295 -2303 0
-2295 -2304 0
-2295 -2305 0
-2295 -2307 0
-2295 -2308 0
-2295 -2310 0
-2295 -2451 0
-2295 -2452 0
-2295 -2454 0
-2295 -2455 0
-2295 -2456 0
-2295 -2457 0
-2295 -2458 0
-2295 -2460 0
-2296 -2301 0
-2296 -2302 0
-2296 -2303 0
-2296 -2304 0
-2296 -2305 0
-2296 -2306 0
-2296 -2308 0
-2296 -2309 0
-2296 -2310 0
-2296 -2451 0
-2296 -2452 0
-2296 -2453 0
-2296 -2455 0
-2296 -2456 0
-2296 -2457 0
-2296 -2458 0
-2296 -2459 0
-2297 -2301 0
-2297 -2302 0
-2297 -2303 0
-2297 -2304 0
-2297 -2305 0
-2297 -2306 0
-2297 -2307 0
-2297 -2309 0
-2297 -2310 0
-2297 -2452 0
-2297 -2453 0
-2297 -2454 0
-2297 -2455 0
-2297 -2456 0
-2297 -2457 0
-2297 -2458 0
-2297 -2459 0
-2297 -2460 0
-2298 -2301 0
-2298 -2303 0
-2298 -2304 0
-2298 -2306 0
-2298 -2307 0
-2298 -2308 0
-2298 -2309 0
-2298 -2310 0
-2298 -2451 0
-2298 -2453 0
-2298 -2454 0
-2298 -2456 0
-2298 -2457 0
-2298 -2458 0
-2298 -2459 0
-2298 -2460 0
-2299 -2301 0
-2299 -2302 0
-2299 -2303 0
-2299 -2304 0
-2299 -2305 0
-2299 -2306 0
-2299 -2307 0
-2299 -2308 0
-2299 -2309 0
-2299 -2451 0
-2299 -2452 0
-2299 -2453 0
-2299 -2455 0
-2299 -2456 0
-2299 -2457 0
-2299 -2458 0
-2299 -2459 0
-2300 -2302 0
-2300 -2303 0
-2300 -2304 0
-2300 -2305 0
-2300 -2306 0
-2300 -2307 0
-2300 -2308 0
-2300 -2309 0
-2300 -2310 0
-2300 -2452 0
-2300 -2453 0
-2300 -2454 0
-2300 -2455 0
-2300 -2456 0
-2300 -2457 0
-2300 -2458 0
-2300 -2459 0
-2300 -2460 0
-2301 -2311 0
-2301 -2313 0
-2301 -2314 0
-2301 -2316 0
-2301 -2317 0
-2301 -2318 0
-2301 -2319 0
-2301 -2320 0
-2301 -2461 0
-2301 -2463 0
-2301 -2464 0
-2301 -2466 0
-2301 -2467 0
-2301 -2468 0
-2301 -2469 0
-2301 -2470 0
-2302 -2311 0
-2302 -2312 0
-2302 -2314 0
-2302 -2315 0
-2302 -2316 0
-2302 -2317 0
-2302 -2318 0
-2302 -2319 0
-2302 -2320 0
-2302 -2461 0
-2302 -2462 0
-2302 -2463 0
-2302 -2464 0
-2302 -2465 0
-2302 -2467 0
-2302 -2468 0
-2302 -2469 0
-2302 -2470 0
-2303 -2311 0
-2303 -2312 0
-2303 -2313 0
-2303 -2315 0
-2303 -2316 0
-2303 -2317 0
-2303 -2318 0
-2303 -2319 0
-2303 -2320 0
-2303 -2461 0
-2303 -2462 0
-2303 -2463 0
-2303 -2464 0
-2303 -2465 0
-2303 -2466 0
-2303 -2468 0
-2303 -2469 0
-2303 -2470 0
-2304 -2312 0
-2304 -2313 0
-2304 -2314 0
-2304 -2315 0
-2304 -2316 0
-2304 -2317 0
-2304 -2318 0
-2304 -2319 0
-2304 -2320 0
-2304 -2461 0
-2304 -2462 0
-2304 -2463 0
-2304 -2464 0
-2304 -2465 0
-2304 -2466 0
-2304 -2467 0
-2304 -2469 0
-2304 -2470 0
-2305 -2311 0
-2305 -2312 0
-2305 -2313 0
-2305 -2314 0
-2305 -2315 0
-2305 -2317 0
-2305 -2318 0
-2305 -2320 0
-2305 -2461 0
-2305 -2462 0
-2305 -2464 0
-2305 -2465 0
-2305 -2466 0
-2305 -2467 0
-2305 -2468 0
-2305 -2470 0
-2306 -2311 0
-2306 -2312 0
-2306 -2313 0
-2306 -2314 0
-2306 -2315 0
-2306 -2316 0
-2306 -2318 0
-2306 -2319 0
-2306 -2320 0
-2306 -2461 0
-2306 -2462 0
-2306 -2463 0
-2306 -2465 0
-2306 -2466 0
-2306 -2467 0
-2306 -2468 0
-2306 -2469 0
-2307 -2311 0
-2307 -2312 0
-2307 -2313 0
-2307 -2314 0
-2307 -2315 0
-2307 -2316 0
-2307 -2317 0
-2307 -2319 0
-2307 -2320 0
-2307 -2462 0
-2307 -2463 0
-2307 -2464 0
-2307 -2465 0
-2307 -2466 0
-2307 -2467 0
-2307 -2468 0
-2307 -2469 0
-2307 -2470 0
-2308 -2311 0
-2308 -2313 0
-2308 -2314 0
-2308 -2316 0
-2308 -2317 0
-2308 -2318 0
-2308 -2319 0
-2308 -2320 0
-2308 -2461 0
-2308 -2463 0
-2308 -2464 0
-2308 -2466 0
-2308 -2467 0
-2308 -2468 0
-2308 -2469 0
-2308 -2470 0
-2309 -2311 0
-2309 -2312 0
-2309 -2313 0
-2309 -2314 0
-2309 -2315 0
-2309 -2316 0
-2309 -2317 0
-2309 -2318 0
-2309 -2319 0
-2309 -2461 0
-2309 -2462 0
-2309 -2463 0
-2309 -2465 0
-2309 -2466 0
-2309 -2467 0
-2309 -2468 0
-2309 -2469 0
-2310 -2312 0
-2310 -2313 0
-2310 -2314 0
-2310 -2315 0
-2310 -2316 0
-2310 -2317 0
-2310 -2318 0
-2310 -2319 0
-2310 -2320 0
-2310 -2462 0
-2310 -2463 0
-2310 -2464 0
-2310 -2465 0
-2310 -2466 0
-2310 -2467 0
-2310 -2468 0
-2310 -2469 0
-2310 -2470 0
-2311 -2321 0
-2311 -2323 0
-2311 -2324 0
-2311 -2326 0
-2311 -2327 0
-2311 -2328 0
-2311 -2329 0
-2311 -2330 0
-2311 -2471 0
-2311 -2473 0
-2311 -2474 0
-2311 -2476 0
-2311 -2477 0
-2311 -2478 0
-2311 -2479 0
-2311 -2480 0
-2312 -2321 0
-2312 -2322 0
-2312 -2324 0
-2312 -2325 0
-2312 -2326 0
-2312 -2327 0
-2312 -2328 0
-2312 -2329 0
-2312 -2330 0
-2312 -2471 0
-2312 -2472 0
-2312 -2473 0
-2312 -2474 0
-2312 -2475 0
-2312 -2477 0
-2312 -2478 0
-2312 -2479 0
-2312 -2480 0
-2313 -2321 0
-2313 -2322 0
-2313 -2323 0
-2313 -2325 0
-2313 -2326 0
-2313 -2327 0
-2313 -2328 0
-2313 -2329 0
-2313 -2330 0
-2313 -2471 0
-2313 -2472 0
-2313 -2473 0
-2313 -2474 0
-2313 -2475 0
-2313 -2476 0
-2313 -2478 0
-2313 -2479 0
-2313 -2480 0
-2314 -2322 0
-2314 -2323 0
-2314 -2324 0
-2314 -2325 0
-2314 -2326 0
-2314 -2327 0
-2314 -2328 0
-2314 -2329 0
-2314 -2330 0
-2314 -2471 0
-2314 -2472 0
-2314 -2473 0
-2314 -2474 0
-2314 -2475 0
-2314 -2476 0
-2314 -2477 0
-2314 -2479 0
-2314 -2480 0
-2315 -2321 0
-2315 -2322 0
-2315 -2323 0
-2315 -2324 0
-2315 -2325 0
-2315 -2327 0
-2315 -2328 0
-2315 -2330 0
-2315 -2471 0
-2315 -2472 0
-2315 -2474 0
-2315 -2475 0
-2315 -2476 0
-2315 -2477 0
-2315 -2478 0
-2315 -2480 0
-2316 -2321 0
-2316 -2322 0
-2316 -2323 0
-2316 -2324 0
-2316 -2325 0
-2316 -2326 0
-2316 -2328 0
-2316 -2329 0
-2316 -2330 0
-2316 -2471 0
-2316 -2472 0
-2316 -2473 0
-2316 -2475 0
-2316 -2476 0
-2316 -2477 0
-2316 -2478 0
-2316 -2479 0
-2317 -2321 0
-2317 -2322 0
-2317 -2323 0
-2317 -2324 0
-2317 -2325 0
-2317 -2326 0
-2317 -2327 0
-2317 -2329 0
-2317 -2330 0
-2317 -2472 0
-2317 -2473 0
-2317 -2474 0
-2317 -2475 0
-2317 -2476 0
-2317 -2477 0
-2317 -2478 0
-2317 -2479 0
-2317 -2480 0
-2318 -2321 0
-2318 -2323 0
-2318 -2324 0
-2318 -2326 0
-2318 -2327 0
-2318 -2328 0
-2318 -2329 0
-2318 -2330 0
-2318 -2471 0
-2318 -2473 0
-2318 -2474 0
-2318 -2476 0
-2318 -2477 0
-2318 -2478 0
-2318 -2479 0
-2318 -2480 0
-2319 -2321 0
-2319 -2322 0
-2319 -2323 0
-2319 -2324 0
-2319 -2325 0
-2319 -2326 0
-2319 -2327 0
-2319 -2328 0
-2319 -2329 0
-2319 -2471 0
-2319 -2472 0
-2319 -2473 0
-2319 -2475 0
-2319 -2476 0
-2319 -2477 0
-2319 -2478 0
-2319 -2479 0
-2320 -2322 0
-2320 -2323 0
-2320 -2324 0
-2320 -2325 0
-2320 -2326 0
-2320 -2327 0
-2320 -2328 0
-2320 -2329 0
-2320 -2330 0
-2320 -2472 0
-2320 -2473 0
-2320 -2474 0
-2320 -2475 0
-2320 -2476 0
-2320 -2477 0
-2320 -2478 0
-2320 -2479 0
-2320 -2480 0
-2321 -2331 0
-2321 -2333 0
-2321 -2334 0
-2321 -2336 0
-2321 -2337 0
-2321 -2338 0
-2321 -2339 0
-2321 -2340 0
-2321 -2481 0
-2321 -2483 0
-2321 -2484 0
-2321 -2486 0
-2321 -2487 0
-2321 -2488 0
-2321 -2489 0
-2321 -2490 0
-2322 -2331 0
-2322 -2332 0
-2322 -2334 0
-2322 -2335 0
-2322 -2336 0
-2322 -2337 0
-2322 -2338 0
-2322 -2339 0
-2322 -2340 0
-2322 -2481 0
-2322 -2482 0
-2322 -2483 0
-2322 -2484 0
-2322 -2485 0
-2322 -2487 0
-2322 -2488 0
-2322 -2489 0
-2322 -2490 0
-2323 -2331 0
-2323 -2332 0
-2323 -2333 0
-2323 -2335 0
-2323 -2336 0
-2323 -2337 0
-2323 -2338 0
-2323 -2339 0
-2323 -2340 0
-2323 -2481 0
-2323 -2482 0
-2323 -2483 0
-2323 -2484 0
-2323 -2485 0
-2323 -2486 0
-2323 -2488 0
-2323 -2489 0
-2323 -2490 0
-2324 -2332 0
-2324 -2333 0
-2324 -2334 0
-2324 -2335 0
-2324 -2336 0
-2324 -2337 0
-2324 -2338 0
-2324 -2339 0
-2324 -2340 0
-2324 -2481 0
-2324 -2482 0
-2324 -2483 0
-2324 -2484 0
-2324 -2485 0
-2324 -2486 0
-2324 -2487 0
-2324 -2489 0
-2324 -2490 0
-2325 -2331 0
-2325 -2332 0
-2325 -2333 0
-2325 -2334 0
-2325 -2335 0
-2325 -2337 0
-2325 -2338 0
-2325 -2340 0
-2325 -2481 0
-2325 -2482 0
-2325 -2484 0
-2325 -2485 0
-2325 -2486 0
-2325 -2487 0
-2325 -2488 0
-2325 -2490 0
-2326 -2331 0
-2326 -2332 0
-2326 -2333 0
-2326 -2334 0
-2326 -2335 0
-2326 -2336 0
-2326 -2338 0
-2326 -2339 0
-2326 -2340 0
-2326 -2481 0
-2326 -2482 0
-2326 -2483 0
-2326 -2485 0
-2326 -2486 0
-2326 -2487 0
-2326 -2488 0
-2326 -2489 0
-2327 -2331 0
-2327 -2332 0
-2327 -2333 0
-2327 -2334 0
-2327 -2335 0
-2327 -2336 0
-2327 -2337 0
-2327 -2339 0
-2327 -2340 0
-2327 -2482 0
-2327 -2483 0
-2327 -2484 0
-2327 -2485 0
-2327 -2486 0
-2327 -2487 0
-2327 -2488 0
-2327 -2489 0
-2327 -2490 0
-2328 -2331 0
-2328 -2333 0
-2328 -2334 0
-2328 -2336 0
-2328 -2337 0
-2328 -2338 0
-2328 -2339 0
-2328 -2340 0
-2328 -2481 0
-2328 -2483 0
-2328 -2484 0
-2328 -2486 0
-2328 -2487 0
-2328 -2488 0
-2328 -2489 0
-2328 -2490 0
-2329 -2331 0
-2329 -2332 0
-2329 -2333 0
-2329 -2334 0
-2329 -2335 0
-2329 -2336 0
-2329 -2337 0
-2329 -2338 0
-2329 -2339 0
-2329 -2481 0
-2329 -2482 0
-2329 -2483 0
-2329 -2485 0
-2329 -2486 0
-2329 -2487 0
-2329 -2488 0
-2329 -2489 0
-2330 -2332 0
-2330 -2333 0
-2330 -2334 0
-2330 -2335 0
-2330 -2336 0
-2330 -2337 0
-2330 -2338 0
-2330 -2339 0
-2330 -2340 0
-2330 -2482 0
-2330 -2483 0
-2330 -2484 0
-2330 -2485 0
-2330 -2486 0
-2330 -2487 0
-2330 -2488 0
-2330 -2489 0
-2330 -2490 0
-2331 -2341 0
-2331 -2343 0
-2331 -2344 0
-2331 -2346 0
-2331 -2347 0
-2331 -2348 0
-2331 -2349 0
-2331 -2350 0
-2331 -2491 0
-2331 -2493 0
-2331 -2494 0
-2331 -2496 0
-2331 -2497 0
-2331 -2498 0
-2331 -2499 0
-2331 -2500 0
-2332 -2341 0
-2332 -2342 0
-2332 -2344 0
-2332 -2345 0
-2332 -2346 0
-2332 -2347 0
-2332 -2348 0
-2332 -2349 0
-2332 -2350 0
-2332 -2491 0
-2332 -2492 0
-2332 -2493 0
-2332 -2494 0
-2332 -2495 0
-2332 -2497 0
-2332 -2498 0
-2332 -2499 0
-2332 -2500 0
-2333 -2341 0
-2333 -2342 0
-2333 -2343 0
-2333 -2345 0
-2333 -2346 0
-2333 -2347 0
-2333 -2348 0
-2333 -2349 0
-2333 -2350 0
-2333 -2491 0
-2333 -2492 0
-2333 -2493 0
-2333 -2494 0
-2333 -2495 0
-2333 -2496 0
-2333 -2498 0
-2333 -2499 0
-2333 -2500 0
-2334 -2342 0
-2334 -2343 0
-2334 -2344 0
-2334 -2345 0
-2334 -2346 0
-2334 -2347 0
-2334 -2348 0
-2334 -2349 0
-2334 -2350 0
-2334 -2491 0
-2334 -2492 0
-2334 -2493 0
-2334 -2494 0
-2334 -2495 0
-2334 -2496 0
-2334 -2497 0
-2334 -2499 0
-2334 -2500 0
-2335 -2341 0
-2335 -2342 0
-2335 -2343 0
-2335 -2344 0
-2335 -2345 0
-2335 -2347 0
-2335 -2348 0
-2335 -2350 0
-2335 -2491 0
-2335 -2492 0
-2335 -2494 0
-2335 -2495 0
-2335 -2496 0
-2335 -2497 0
-2335 -2498 0
-2335 -2500 0
-2336 -2341 0
-2336 -2342 0
-2336 -2343 0
-2336 -2344 0
-2336 -2345 0
-2336 -2346 0
-2336 -2348 0
-2336 -2349 0
-2336 -2350 0
-2336 -2491 0
-2336 -2492 0
-2336 -2493 0
-2336 -2495 0
-2336 -2496 0
-2336 -2497 0
-2336 -2498 0
-2336 -2499 0
-2337 -2341 0
-2337 -2342 0
-2337 -2343 0
-2337 -2344 0
-2337 -2345 0
-2337 -2346 0
-2337 -2347 0
-2337 -2349 0
-2337 -2350 0
-2337 -2492 0
-2337 -2493 0
-2337 -2494 0
-2337 -2495 0
-2337 -2496 0
-2337 -2497 0
-2337 -2498 0
-2337 -2499 0
-2337 -2500 0
-2338 -2341 0
-2338 -2343 0
-2338 -2344 0
-2338 -2346 0
-2338 -2347 0
-2338 -2348 0
-2338 -2349 0
-2338 -2350 0
-2338 -2491 0
-2338 -2493 0
-2338 -2494 0
-2338 -2496 0
-2338 -2497 0
-2338 -2498 0
-2338 -2499 0
-2338 -2500 0
-2339 -2341 0
-2339 -2342 0
-2339 -2343 0
-2339 -2344 0
-2339 -2345 0
-2339 -2346 0
-2339 -2347 0
-2339 -2348 0
-2339 -2349 0
-2339 -2491 0
-2339 -2492 0
-2339 -2493 0
-2339 -2495 0
-2339 -2496 0
-2339 -2497 0
-2339 -2498 0
-2339 -2499 0
-2340 -2342 0
-2340 -2343 0
-2340 -2344 0
-2340 -2345 0
-2340 -2346 0
-2340 -2347 0
-2340 -2348 0
-2340 -2349 0
-2340 -2350 0
-2340 -2492 0
-2340 -2493 0
-2340 -2494 0
-2340 -2495 0
-2340 -2496 0
-2340 -2497 0
-2340 -2498 0
-2340 -2499 0
-2340 -2500 0
-2341 -2351 0
-2341 -2353 0
-2341 -2354 0
-2341 -2356 0
-2341 -2357 0
-2341 -2358 0
-2341 -2359 0
-2341 -2360 0
-2341 -2501 0
-2341 -2503 0
-2341 -2504 0
-2341 -2506 0
-2341 -2507 0
-2341 -2508 0
-2341 -2509 0
-2341 -2510 0
-2342 -2351 0
-2342 -2352 0
-2342 -2354 0
-2342 -2355 0
-2342 -2356 0
-2342 -2357 0
-2342 -2358 0
-2342 -2359 0
-2342 -2360 0
-2342 -2501 0
-2342 -2502 0
-2342 -2503 0
-2342 -2504 0
-2342 -2505 0
-2342 -2507 0
-2342 -2508 0
-2342 -2509 0
-2342 -2510 0
-2343 -2351 0
-2343 -2352 0
-2343 -2353 0
-2343 -2355 0
-2343 -2356 0
-2343 -2357 0
-2343 -2358 0
-2343 -2359 0
-2343 -2360 0
-2343 -2501 0
-2343 -2502 0
-2343 -2503 0
-2343 -2504 0
-2343 -2505 0
-2343 -2506 0
-2343 -2508 0
-2343 -2509 0
-2343 -2510 0
-2344 -2352 0
-2344 -2353 0
-2344 -2354 0
-2344 -2355 0
-2344 -2356 0
-2344 -2357 0
-2344 -2358 0
-2344 -2359 0
-2344 -2360 0
-2344 -2501 0
-2344 -2502 0
-2344 -2503 0
-2344 -2504 0
-2344 -2505 0
-2344 -2506 0
-2344 -2507 0
-2344 -2509 0
-2344 -2510 0
-2345 -2351 0
-2345 -2352 0
-2345 -2353 0
-2345 -2354 0
-2345 -2355 0
-2345 -2357 0
-2345 -2358 0
-2345 -2360 0
-2345 -2501 0
-2345 -2502 0
-2345 -2504 0
-2345 -2505 0
-2345 -2506 0
-2345 -2507 0
-2345 -2508 0
-2345 -2510 0
-2346 -2351 0
-2346 -2352 0
-2346 -2353 0
-2346 -2354 0
-2346 -2355 0
-2346 -2356 0
-2346 -2358 0
-2346 -2359 0
-2346 -2360 0
-2346 -2501 0
-2346 -2502 0
-2346 -2503 0
-2346 -2505 0
-2346 -2506 0
-2346 -2507 0
-2346 -2508 0
-2346 -2509 0
-2347 -2351 0
-2347 -2352 0
-2347 -2353 0
-2347 -2354 0
-2347 -2355 0
-2347 -2356 0
-2347 -2357 0
-2347 -2359 0
-2347 -2360 0
-2347 -2502 0
-2347 -2503 0
-2347 -2504 0
-2347 -2505 0
-2347 -2506 0
-2347 -2507 0
-2347 -2508 0
-2347 -2509 0
-2347 -2510 0
-2348 -2351 0
-2348 -2353 0
-2348 -2354 0
-2348 -2356 0
-2348 -2357 0
-2348 -2358 0
-2348 -2359 0
-2348 -2360 0
-2348 -2501 0
-2348 -2503 0
-2348 -2504 0
-2348 -2506 0
-2348 -2507 0
-2348 -2508 0
-2348 -2509 0
-2348 -2510 0
-2349 -2351 0
-2349 -2352 0
-2349 -2353 0
-2349 -2354 0
-2349 -2355 0
-2349 -2356 0
-2349 -2357 0
-2349 -2358 0
-2349 -2359 0
-2349 -2501 0
-2349 -2502 0
-2349 -2503 0
-2349 -2505 0
-2349 -2506 0
-2349 -2507 0
-2349 -2508 0
-2349 -2509 0
-2350 -2352 0
-2350 -2353 0
-2350 -2354 0
-2350 -2355 0
-2350 -2356 0
-2350 -2357 0
-2350 -2358 0
-2350 -2359 0
-2350 -2360 0
-2350 -2502 0
-2350 -2503 0
-2350 -2504 0
-2350 -2505 0
-2350 -2506 0
-2350 -2507 0
-2350 -2508 0
-2350 -2509 0
-2350 -2510 0
-2351 -2361 0
-2351 -2363 0
-2351 -2364 0
-2351 -2366 0
-2351 -2367 0
-2351 -2368 0
-2351 -2369 0
-2351 -2370 0
-2351 -2511 0
-2351 -2513 0
-2351 -2514 0
-2351 -2516 0
-2351 -2517 0
-2351 -2518 0
-2351 -2519 0
-2351 -2520 0
-2352 -2361 0
-2352 -2362 0
-2352 -2364 0
-2352 -2365 0
-2352 -2366 0
-2352 -2367 0
-2352 -2368 0
-2352 -2369 0
-2352 -2370 0
-2352 -2511 0
-2352 -2512 0
-2352 -2513 0
-2352 -2514 0
-2352 -2515 0
-2352 -2517 0
-2352 -2518 0
-2352 -2519 0
-2352 -2520 0
-2353 -2361 0
-2353 -2362 0
-2353 -2363 0
-2353 -2365 0
-2353 -2366 0
-2353 -2367 0
-2353 -2368 0
-2353 -2369 0
-2353 -2370 0
-2353 -2511 0
-2353 -2512 0
-2353 -2513 0
-2353 -2514 0
-2353 -2515 0
-2353 -2516 0
-2353 -2518 0
-2353 -2519 0
-2353 -2520 0
-2354 -2362 0
-2354 -2363 0
-2354 -2364 0
-2354 -2365 0
-2354 -2366 0
-2354 -2367 0
-2354 -2368 0
-2354 -2369 0
-2354 -2370 0
-2354 -2511 0
-2354 -2512 0
-2354 -2513 0
-2354 -2514 0
-2354 -2515 0
-2354 -2516 0
-2354 -2517 0
-2354 -2519 0
-2354 -2520 0
-2355 -2361 0
-2355 -2362 0
-2355 -2363 0
-2355 -2364 0
-2355 -2365 0
-2355 -2367 0
-2355 -2368 0
-2355 -2370 0
-2355 -2511 0
-2355 -2512 0
-2355 -2514 0
-2355 -2515 0
-2355 -2516 0
-2355 -2517 0
-2355 -2518 0
-2355 -2520 0
-2356 -2361 0
-2356 -2362 0
-2356 -2363 0
-2356 -2364 0
-2356 -2365 0
-2356 -2366 0
-2356 -2368 0
-2356 -2369 0
-2356 -2370 0
-2356 -2511 0
-2356 -2512 0
-2356 -2513 0
-2356 -2515 0
-2356 -2516 0
-2356 -2517 0
-2356 -2518 0
-2356 -2519 0
-2357 -2361 0
-2357 -2362 0
-2357 -2363 0
-2357 -2364 0
-2357 -2365 0
-2357 -2366 0
-2357 -2367 0
-2357 -2369 0
-2357 -2370 0
-2357 -2512 0
-2357 -2513 0
-2357 -2514 0
-2357 -2515 0
-2357 -2516 0
-2357 -2517 0
-2357 -2518 0
-2357 -2519 0
-2357 -2520 0
-2358 -2361 0
-2358 -2363 0
-2358 -2364 0
-2358 -2366 0
-2358 -2367 0
-2358 -2368 0
-2358 -2369 0
-2358 -2370 0
-2358 -2511 0
-2358 -2513 0
-2358 -2514 0
-2358 -2516 0
-2358 -2517 0
-2358 -2518 0
-2358 -2519 0
-2358 -2520 0
-2359 -2361 0
-2359 -2362 0
-2359 -2363 0
-2359 -2364 0
-2359 -2365 0
-2359 -2366 0
-2359 -2367 0
-2359 -2368 0
-2359 -2369 0
-2359 -2511 0
-2359 -2512 0
-2359 -2513 0
-2359 -2515 0
-2359 -2516 0
-2359 -2517 0
-2359 -2518 0
-2359 -2519 0
-2360 -2362 0
-2360 -2363 0
-2360 -2364 0
-2360 -2365 0
-2360 -2366 0
-2360 -2367 0
-2360 -2368 0
-2360 -2369 0
-2360 -2370 0
-2360 -2512 0
-2360 -2513 0
-2360 -2514 0
-2360 -2515 0
-2360 -2516 0
-2360 -2517 0
-2360 -2518 0
-2360 -2519 0
-2360 -2520 0
-2361 -2371 0
-2361 -2373 0
-2361 -2374 0
-2361 -2376 0
-2361 -2377 0
-2361 -2378 0
-2361 -2379 0
-2361 -2380 0
-2361 -2521 0
-2361 -2523 0
-2361 -2524 0
-2361 -2526 0
-2361 -2527 0
-2361 -2528 0
-2361 -2529 0
-2361 -2530 0
-2362 -2371 0
-2362 -2372 0
-2362 -2374 0
-2362 -2375 0
-2362 -2376 0
-2362 -2377 0
-2362 -2378 0
-2362 -2379 0
-2362 -2380 0
-2362 -2521 0
-2362 -2522 0
-2362 -2523 0
-2362 -2524 0
-2362 -2525 0
-2362 -2527 0
-2362 -2528 0
-2362 -2529 0
-2362 -2530 0
-2363 -2371 0
-2363 -2372 0
-2363 -2373 0
-2363 -2375 0
-2363 -2376 0
-2363 -2377 0
-2363 -2378 0
-2363 -2379 0
-2363 -2380 0
-2363 -2521 0
-2363 -2522 0
-2363 -2523 0
-2363 -2524 0
-2363 -2525 0
-2363 -2526 0
-2363 -2528 0
-2363 -2529 0
-2363 -2530 0
-2364 -2372 0
-2364 -2373 0
-2364 -2374 0
-2364 -2375 0
-2364 -2376 0
-2364 -2377 0
-2364 -2378 0
-2364 -2379 0
-2364 -2380 0
-2364 -2521 0
-2364 -2522 0
-2364 -2523 0
-2364 -2524 0
-2364 -2525 0
-2364 -2526 0
-2364 -2527 0
-2364 -2529 0
-2364 -2530 0
-2365 -2371 0
-2365 -2372 0
-2365 -2373 0
-2365 -2374 0
-2365 -2375 0
-2365 -2377 0
-2365 -2378 0
-2365 -2380 0
-2365 -2521 0
-2365 -2522 0
-2365 -2524 0
-2365 -2525 0
-2365 -2526 0
-2365 -2527 0
-2365 -2528 0
-2365 -2530 0
-2366 -2371 0
-2366 -2372 0
-2366 -2373 0
-2366 -2374 0
-2366 -2375 0
-2366 -2376 0
-2366 -2378 0
-2366 -2379 0
-2366 -2380 0
-2366 -2521 0
-2366 -2522 0
-2366 -2523 0
-2366 -2525 0
-2366 -2526 0
-2366 -2527 0
-2366 -2528 0
-2366 -2529 0
-2367 -2371 0
-2367 -2372 0
-2367 -2373 0
-2367 -2374 0
-2367 -2375 0
-2367 -2376 0
-2367 -2377 0
-2367 -2379 0
-2367 -2380 0
-2367 -2522 0
-2367 -2523 0
-2367 -2524 0
-2367 -2525 0
-2367 -2526 0
-2367 -2527 0
-2367 -2528 0
-2367 -2529 0
-2367 -2530 0
-2368 -2371 0
-2368 -2373 0
-2368 -2374 0
-2368 -2376 0
-2368 -2377 0
-2368 -2378 0
-2368 -2379 0
-2368 -2380 0
-2368 -2521 0
-2368 -2523 0
-2368 -2524 0
-2368 -2526 0
-2368 -2527 0
-2368 -2528 0
-2368 -2529 0
-2368 -2530 0
-2369 -2371 0
-2369 -2372 0
-2369 -2373 0
-2369 -2374 0
-2369 -2375 0
-2369 -2376 0
-2369 -2377 0
-2369 -2378 0
-2369 -2379 0
-2369 -2521 0
-2369 -2522 0
-2369 -2523 0
-2369 -2525 0
-2369 -2526 0
-2369 -2527 0
-2369 -2528 0
-2369 -2529 0
-2370 -2372 0
-2370 -2373 0
-2370 -2374 0
-2370 -2375 0
-2370 -2376 0
-2370 -2377 0
-2370 -2378 0
-2370 -2379 0
-2370 -2380 0
-2370 -2522 0
-2370 -2523 0
-2370 -2524 0
-2370 -2525 0
-2370 -2526 0
-2370 -2527 0
-2370 -2528 0
-2370 -2529 0
-2370 -2530 0
-2371 -2381 0
-2371 -2383 0
-2371 -2384 0
-2371 -2386 0
-2371 -2387 0
-2371 -2388 0
-2371 -2389 0
-2371 -2390 0
-2371 -2531 0
-2371 -2533 0
-2371 -2534 0
-2371 -2536 0
-2371 -2537 0
-2371 -2538 0
-2371 -2539 0
-2371 -2540 0
-2372 -2381 0
-2372 -2382 0
-2372 -2384 0
-2372 -2385 0
-2372 -2386 0
-2372 -2387 0
-2372 -2388 0
-2372 -2389 0
-2372 -2390 0
-2372 -2531 0
-2372 -2532 0
-2372 -2533 0
-2372 -2534 0
-2372 -2535 0
-2372 -2537 0
-2372 -2538 0
-2372 -2539 0
-2372 -2540 0
-2373 -2381 0
-2373 -2382 0
-2373 -2383 0
-2373 -2385 0
-2373 -2386 0
-2373 -2387 0
-2373 -2388 0
-2373 -2389 0
-2373 -2390 0
-2373 -2531 0
-2373 -2532 0
-2373 -2533 0
-2373 -2534 0
-2373 -2535 0
-2373 -2536 0
-2373 -2538 0
-2373 -2539 0
-2373 -2540 0
-2374 -2382 0
-2374 -2383 0
-2374 -2384 0
-2374 -2385 0
-2374 -2386 0
-2374 -2387 0
-2374 -2388 0
-2374 -2389 0
-2374 -2390 0
-2374 -2531 0
-2374 -2532 0
-2374 -2533 0
-2374 -2534 0
-2374 -2535 0
-2374 -2536 0
-2374 -2537 0
-2374 -2539 0
-2374 -2540 0
-2375 -2381 0
-2375 -2382 0
-2375 -2383 0
-2375 -2384 0
-2375 -2385 0
-2375 -2387 0
-2375 -2388 0
-2375 -2390 0
-2375 -2531 0
-2375 -2532 0
-2375 -2534 0
-2375 -2535 0
-2375 -2536 0
-2375 -2537 0
-2375 -2538 0
-2375 -2540 0
-2376 -2381 0
-2376 -2382 0
-2376 -2383 0
-2376 -2384 0
-2376 -2385 0
-2376 -2386 0
-2376 -2388 0
-2376 -2389 0
-2376 -2390 0
-2376 -2531 0
-2376 -2532 0
-2376 -2533 0
-2376 -2535 0
-2376 -2536 0
-2376 -2537 0
-2376 -2538 0
-2376 -2539 0
-2377 -2381 0
-2377 -2382 0
-2377 -2383 0
-2377 -2384 0
-2377 -2385 0
-2377 -2386 0
-2377 -2387 0
-2377 -2389 0
-2377 -2390 0
-2377 -2532 0
-2377 -2533 0
-2377 -2534 0
-2377 -2535 0
-2377 -2536 0
-2377 -2537 0
-2377 -2538 0
-2377 -2539 0
-2377 -2540 0
-2378 -2381 0
-2378 -2383 0
-2378 -2384 0
-2378 -2386 0
-2378 -2387 0
-2378 -2388 0
-2378 -2389 0
-2378 -2390 0
-2378 -2531 0
-2378 -2533 0
-2378 -2534 0
-2378 -2536 0
-2378 -2537 0
-2378 -2538 0
-2378 -2539 0
-2378 -2540 0
-2379 -2381 0
-2379 -2382 0
-2379 -2383 0
-2379 -2384 0
-2379 -2385 0
-2379 -2386 0
-2379 -2387 0
-2379 -2388 0
-2379 -2389 0
-2379 -2531 0
-2379 -2532 0
-2379 -2533 0
-2379 -2535 0
-2379 -2536 0
-2379 -2537 0
-2379 -2538 0
-2379 -2539 0
-2380 -2382 0
-2380 -2383 0
-2380 -2384 0
-2380 -2385 0
-2380 -2386 0
-2380 -2387 0
-2380 -2388 0
-2380 -2389 0
-2380 -2390 0
-2380 -2532 0
-2380 -2533 0
-2380 -2534 0
-2380 -2535 0
-2380 -2536 0
-2380 -2537 0
-2380 -2538 0
-2380 -2539 0
-2380 -2540 0
-2381 -2391 0
-2381 -2393 0
-2381 -2394 0
-2381 -2396 0
-2381 -2397 0
-2381 -2398 0
-2381 -2399 0
-2381 -2400 0
-2381 -2541 0
-2381 -2543 0
-2381 -2544 0
-2381 -2546 0
-2381 -2547 0
-2381 -2548 0
-2381 -2549 0
-2381 -2550 0
-2382 -2391 0
-2382 -2392 0
-2382 -2394 0
-2382 -2395 0
-2382 -2396 0
-2382 -2397 0
-2382 -2398 0
-2382 -2399 0
-2382 -2400 0
-2382 -2541 0
-2382 -2542 0
-2382 -2543 0
-2382 -2544 0
-2382 -2545 0
-2382 -2547 0
-2382 -2548 0
-2382 -2549 0
-2382 -2550 0
-2383 -2391 0
-2383 -2392 0
-2383 -2393 0
-2383 -2395 0
-2383 -2396 0
-2383 -2397 0
-2383 -2398 0
-2383 -2399 0
-2383 -2400 0
-2383 -2541 0
-2383 -2542 0
-2383 -2543 0
-2383 -2544 0
-2383 -2545 0
-2383 -2546 0
-2383 -2548 0
-2383 -2549 0
-2383 -2550 0
-2384 -2392 0
-2384 -2393 0
-2384 -2394 0
-2384 -2395 0
-2384 -2396 0
-2384 -2397 0
-2384 -2398 0
-2384 -2399 0
-2384 -2400 0
-2384 -2541 0
-2384 -2542 0
-2384 -2543 0
-2384 -2544 0
-2384 -2545 0
-2384 -2546 0
-2384 -2547 0
-2384 -2549 0
-2384 -2550 0
-2385 -2391 0
-2385 -2392 0
-2385 -2393 0
-2385 -2394 0
-2385 -2395 0
-2385 -2397 0
-2385 -2398 0
-2385 -2400 0
-2385 -2541 0
-2385 -2542 0
-2385 -2544 0
-2385 -2545 0
-2385 -2546 0
-2385 -2547 0
-2385 -2548 0
-2385 -2550 0
-2386 -2391 0
-2386 -2392 0
-2386 -2393 0
-2386 -2394 0
-2386 -2395 0
-2386 -2396 0
-2386 -2398 0
-2386 -2399 0
-2386 -2400 0
-2386 -2541 0
-2386 -2542 0
-2386 -2543 0
-2386 -2545 0
-2386 -2546 0
-2386 -2547 0
-2386 -2548 0
-2386 -2549 0
-2387 -2391 0
-2387 -2392 0
-2387 -2393 0
-2387 -2394 0
-2387 -2395 0
-2387 -2396 0
-2387 -2397 0
-2387 -2399 0
-2387 -2400 0
-2387 -2542 0
-2387 -2543 0
-2387 -2544 0
-2387 -2545 0
-2387 -2546 0
-2387 -2547 0
-2387 -2548 0
-2387 -2549 0
-2387 -2550 0
-2388 -2391 0
-2388 -2393 0
-2388 -2394 0
-2388 -2396 0
-2388 -2397 0
-2388 -2398 0
-2388 -2399 0
-2388 -2400 0
-2388 -2541 0
-2388 -2543 0
-2388 -2544 0
-2388 -2546 0
-2388 -2547 0
-2388 -2548 0
-2388 -2549 0
-2388 -2550 0
-2389 -2391 0
-2389 -2392 0
-2389 -2393 0
-2389 -2394 0
-2389 -2395 0
-2389 -2396 0
-2389 -2397 0
-2389 -2398 0
-2389 -2399 0
-2389 -2541 0
-2389 -2542 0
-2389 -2543 0
-2389 -2545 0
-2389 -2546 0
-2389 -2547 0
-2389 -2548 0
-2389 -2549 0
-2390 -2392 0
-2390 -2393 0
-2390 -2394 0
-2390 -2395 0
-2390 -2396 0
-2390 -2397 0
-2390 -2398 0
-2390 -2399 0
-2390 -2400 0
-2390 -2542 0
-2390 -2543 0
-2390 -2544 0
-2390 -2545 0
-2390 -2546 0
-2390 -2547 0
-2390 -2548 0
-2390 -2549 0
-2390 -2550 0
-2391 -2551 0
-2391 -2553 0
-2391 -2554 0
-2391 -2556 0
-2391 -2557 0
-2391 -2558 0
-2391 -2559 0
-2391 -2560 0
-2392 -2551 0
-2392 -2552 0
-2392 -2553 0
-2392 -2554 0
-2392 -2555 0
-2392 -2557 0
-2392 -2558 0
-2392 -2559 0
-2392 -2560 0
-2393 -2551 0
-2393 -2552 0
-2393 -2553 0
-2393 -2554 0
-2393 -2555 0
-2393 -2556 0
-2393 -2558 0
-2393 -2559 0
-2393 -2560 0
-2394 -2551 0
-2394 -2552 0
-2394 -2553 0
-2394 -2554 0
-2394 -2555 0
-2394 -2556 0
-2394 -2557 0
-2394 -2559 0
-2394 -2560 0
-2395 -2551 0
-2395 -2552 0
-2395 -2554 0
-2395 -2555 0
-2395 -2556 0
-2395 -2557 0
-2395 -2558 0
-2395 -2560 0
-2396 -2551 0
-2396 -2552 0
-2396 -2553 0
-2396 -2555 0
-2396 -2556 0
-2396 -2557 0
-2396 -2558 0
-2396 -2559 0
-2397 -2552 0
-2397 -2553 0
-2397 -2554 0
-2397 -2555 0
-2397 -2556 0
-2397 -2557 0
-2397 -2558 0
-2397 -2559 0
-2397 -2560 0
-2398 -2551 0
-2398 -2553 0
-2398 -2554 0
-2398 -2556 0
-2398 -2557 0
-2398 -2558 0
-2398 -2559 0
-2398 -2560 0
-2399 -2551 0
-2399 -2552 0
-2399 -2553 0
-2399 -2555 0
-2399 -2556 0
-2399 -2557 0
-2399 -2558 0
-2399 -2559 0
-2400 -2552 0
-2400 -2553 0
-2400 -2554 0
-2400 -2555 0
-2400 -2556 0
-2400 -2557 0
-2400 -2558 0
-2400 -2559 0
-2400 -2560 0
-2401 -2411 0
-2401 -2413 0
-2401 -2414 0
-2401 -2416 0
-2401 -2417 0
-2401 -2418 0
-2401 -2419 0
-2401 -2420 0
-2402 -2411 0
-2402 -2412 0
-2402 -2414 0
-2402 -2415 0
-2402 -2416 0
-2402 -2417 0
-2402 -2418 0
-2402 -2419 0
-2402 -2420 0
-2403 -2411 0
-2403 -2412 0
-2403 -2413 0
-2403 -2415 0
-2403 -2416 0
-2403 -2417 0
-2403 -2418 0
-2403 -2419 0
-2403 -2420 0
-2404 -2412 0
-2404 -2413 0
-2404 -2414 0
-2404 -2415 0
-2404 -2416 0
-2404 -2417 0
-2404 -2418 0
-2404 -2419 0
-2404 -2420 0
-2405 -2411 0
-2405 -2412 0
-2405 -2413 0
-2405 -2414 0
-2405 -2415 0
-2405 -2417 0
-2405 -2418 0
-2405 -2420 0
-2406 -2411 0
-2406 -2412 0
-2406 -2413 0
-2406 -2414 0
-2406 -2415 0
-2406 -2416 0
-2406 -2418 0
-2406 -2419 0
-2406 -2420 0
-2407 -2411 0
-2407 -2412 0
-2407 -2413 0
-2407 -2414 0
-2407 -2415 0
-2407 -2416 0
-2407 -2417 0
-2407 -2419 0
-2407 -2420 0
-2408 -2411 0
-2408 -2413 0
-2408 -2414 0
-2408 -2416 0
-2408 -2417 0
-2408 -2418 0
-2408 -2419 0
-2408 -2420 0
-2409 -2411 0
-2409 -2412 0
-2409 -2413 0
-2409 -2414 0
-2409 -2415 0
-2409 -2416 0
-2409 -2417 0
-2409 -2418 0
-2409 -2419 0
-2410 -2412 0
-2410 -2413 0
-2410 -2414 0
-2410 -2415 0
-2410 -2416 0
-2410 -2417 0
-2410 -2418 0
-2410 -2419 0
-2410 -2420 0
-2411 -2421 0
-2411 -2423 0
-2411 -2424 0
-2411 -2426 0
-2411 -2427 0
-2411 -2428 0
-2411 -2429 0
-2411 -2430 0
-2412 -2421 0
-2412 -2422 0
-2412 -2424 0
-2412 -2425 0
-2412 -2426 0
-2412 -2427 0
-2412 -2428 0
-2412 -2429 0
-2412 -2430 0
-2413 -2421 0
-2413 -2422 0
-2413 -2423 0
-2413 -2425 0
-2413 -2426 0
-2413 -2427 0
-2413 -2428 0
-2413 -2429 0
-2413 -2430 0
-2414 -2422 0
-2414 -2423 0
-2414 -2424 0
-2414 -2425 0
-2414 -2426 0
-2414 -2427 0
-2414 -2428 0
-2414 -2429 0
-2414 -2430 0
-2415 -2421 0
-2415 -2422 0
-2415 -2423 0
-2415 -2424 0
-2415 -2425 0
-2415 -2427 0
-2415 -2428 0
-2415 -2430 0
-2416 -2421 0
-2416 -2422 0
-2416 -2423 0
-2416 -2424 0
-2416 -2425 0
-2416 -2426 0
-2416 -2428 0
-2416 -2429 0
-2416 -2430 0
-2417 -2421 0
-2417 -2422 0
-2417 -2423 0
-2417 -2424 0
-2417 -2425 0
-2417 -2426 0
-2417 -2427 0
-2417 -2429 0
-2417 -2430 0
-2418 -2421 0
-2418 -2423 0
-2418 -2424 0
-2418 -2426 0
-2418 -2427 0
-2418 -2428 0
-2418 -2429 0
-2418 -2430 0
-2419 -2421 0
-2419 -2422 0
-2419 -2423 0
-2419 -2424 0
-2419 -2425 0
-2419 -2426 0
-2419 -2427 0
-2419 -2428 0
-2419 -2429 0
-2420 -2422 0
-2420 -2423 0
-2420 -2424 0
-2420 -2425 0
-2420 -2426 0
-2420 -2427 0
-2420 -2428 0
-2420 -2429 0
-2420 -2430 0
-2421 -2431 0
-2421 -2433 0
-2421 -2434 0
-2421 -2436 0
-2421 -2437 0
-2421 -2438 0
-2421 -2439 0
-2421 -2440 0
-2422 -2431 0
-2422 -2432 0
-2422 -2434 0
-2422 -2435 0
-2422 -2436 0
-2422 -2437 0
-2422 -2438 0
-2422 -2439 0
-2422 -2440 0
-2423 -2431 0
-2423 -2432 0
-2423 -2433 0
-2423 -2435 0
-2423 -2436 0
-2423 -2437 0
-2423 -2438 0
-2423 -2439 0
-2423 -2440 0
-2424 -2432 0
-2424 -2433 0
-2424 -2434 0
-2424 -2435 0
-2424 -2436 0
-2424 -2437 0
-2424 -2438 0
-2424 -2439 0
-2424 -2440 0
-2425 -2431 0
-2425 -2432 0
-2425 -2433 0
-2425 -2434 0
-2425 -2435 0
-2425 -2437 0
-2425 -2438 0
-2425 -2440 0
-2426 -2431 0
-2426 -2432 0
-2426 -2433 0
-2426 -2434 0
-2426 -2435 0
-2426 -2436 0
-2426 -2438 0
-2426 -2439 0
-2426 -2440 0
-2427 -2431 0
-2427 -2432 0
-2427 -2433 0
-2427 -2434 0
-2427 -2435 0
-2427 -2436 0
-2427 -2437 0
-2427 -2439 0
-2427 -2440 0
-2428 -2431 0
-2428 -2433 0
-2428 -2434 0
-2428 -2436 0
-2428 -2437 0
-2428 -2438 0
-2428 -2439 0
-2428 -2440 0
-2429 -2431 0
-2429 -2432 0
-2429 -2433 0
-2429 -2434 0
-2429 -2435 0
-2429 -2436 0
-2429 -2437 0
-2429 -2438 0
-2429 -2439 0
-2430 -2432 0
-2430 -2433 0
-2430 -2434 0
-2430 -2435 0
-2430 -2436 0
-2430 -2437 0
-2430 -2438 0
-2430 -2439 0
-2430 -2440 0
-2431 -2441 0
-2431 -2443 0
-2431 -2444 0
-2431 -2446 0
-2431 -2447 0
-2431 -2448 0
-2431 -2449 0
-2431 -2450 0
-2432 -2441 0
-2432 -2442 0
-2432 -2444 0
-2432 -2445 0
-2432 -2446 0
-2432 -2447 0
-2432 -2448 0
-2432 -2449 0
-2432 -2450 0
-2433 -2441 0
-2433 -2442 0
-2433 -2443 0
-2433 -2445 0
-2433 -2446 0
-2433 -2447 0
-2433 -2448 0
-2433 -2449 0
-2433 -2450 0
-2434 -2442 0
-2434 -2443 0
-2434 -2444 0
-2434 -2445 0
-2434 -2446 0
-2434 -2447 0
-2434 -2448 0
-2434 -2449 0
-2434 -2450 0
-2435 -2441 0
-2435 -2442 0
-2435 -2443 0
-2435 -2444 0
-2435 -2445 0
-2435 -2447 0
-2435 -2448 0
-2435 -2450 0
-2436 -2441 0
-2436 -2442 0
-2436 -2443 0
-2436 -2444 0
-2436 -2445 0
-2436 -2446 0
-2436 -2448 0
-2436 -2449 0
-2436 -2450 0
-2437 -2441 0
-2437 -2442 0
-2437 -2443 0
-2437 -2444 0
-2437 -2445 0
-2437 -2446 0
-2437 -2447 0
-2437 -2449 0
-2437 -2450 0
-2438 -2441 0
-2438 -2443 0
-2438 -2444 0
-2438 -2446 0
-2438 -2447 0
-2438 -2448 0
-2438 -2449 0
-2438 -2450 0
-2439 -2441 0
-2439 -2442 0
-2439 -2443 0
-2439 -2444 0
-2439 -2445 0
-2439 -2446 0
-2439 -2447 0
-2439 -2448 0
-2439 -2449 0
-2440 -2442 0
-2440 -2443 0
-2440 -2444 0
-2440 -2445 0
-2440 -2446 0
-2440 -2447 0
-2440 -2448 0
-2440 -2449 0
-2440 -2450 0
-2441 -2451 0
-2441 -2453 0
-2441 -2454 0
-2441 -2456 0
-2441 -2457 0
-2441 -2458 0
-2441 -2459 0
-2441 -2460 0
-2442 -2451 0
-2442 -2452 0
-2442 -2454 0
-2442 -2455 0
-2442 -2456 0
-2442 -2457 0
-2442 -2458 0
-2442 -2459 0
-2442 -2460 0
-2443 -2451 0
-2443 -2452 0
-2443 -2453 0
-2443 -2455 0
-2443 -2456 0
-2443 -2457 0
-2443 -2458 0
-2443 -2459 0
-2443 -2460 0
-2444 -2452 0
-2444 -2453 0
-2444 -2454 0
-2444 -2455 0
-2444 -2456 0
-2444 -2457 0
-2444 -2458 0
-2444 -2459 0
-2444 -2460 0
-2445 -2451 0
-2445 -2452 0
-2445 -2453 0
-2445 -2454 0
-2445 -2455 0
-2445 -2457 0
-2445 -2458 0
-2445 -2460 0
-2446 -2451 0
-2446 -2452 0
-2446 -2453 0
-2446 -2454 0
-2446 -2455 0
-2446 -2456 0
-2446 -2458 0
-2446 -2459 0
-2446 -2460 0
-2447 -2451 0
-2447 -2452 0
-2447 -2453 0
-2447 -2454 0
-2447 -2455 0
-2447 -2456 0
-2447 -2457 0
-2447 -2459 0
-2447 -2460 0
-2448 -2451 0
-2448 -2453 0
-2448 -2454 0
-2448 -2456 0
-2448 -2457 0
-2448 -2458 0
-2448 -2459 0
-2448 -2460 0
-2449 -2451 0
-2449 -2452 0
-2449 -2453 0
-2449 -2454 0
-2449 -2455 0
-2449 -2456 0
-2449 -2457 0
-2449 -2458 0
-2449 -2459 0
-2450 -2452 0
-2450 -2453 0
-2450 -2454 0
-2450 -2455 0
-2450 -2456 0
-2450 -2457 0
-2450 -2458 0
-2450 -2459 0
-2450 -2460 0
-2451 -2461 0
-2451 -2463 0
-2451 -2464 0
-2451 -2466 0
-2451 -2467 0
-2451 -2468 0
-2451 -2469 0
-2451 -2470 0
-2452 -2461 0
-2452 -2462 0
-2452 -2464 0
-2452 -2465 0
-2452 -2466 0
-2452 -2467 0
-2452 -2468 0
-2452 -2469 0
-2452 -2470 0
-2453 -2461 0
-2453 -2462 0
-2453 -2463 0
-2453 -2465 0
-2453 -2466 0
-2453 -2467 0
-2453 -2468 0
-2453 -2469 0
-2453 -2470 0
-2454 -2462 0
-2454 -2463 0
-2454 -2464 0
-2454 -2465 0
-2454 -2466 0
-2454 -2467 0
-2454 -2468 0
-2454 -2469 0
-2454 -2470 0
-2455 -2461 0
-2455 -2462 0
-2455 -2463 0
-2455 -2464 0
-2455 -2465 0
-2455 -2467 0
-2455 -2468 0
-2455 -2470 0
-2456 -2461 0
-2456 -2462 0
-2456 -2463 0
-2456 -2464 0
-2456 -2465 0
-2456 -2466 0
-2456 -2468 0
-2456 -2469 0
-2456 -2470 0
-2457 -2461 0
-2457 -2462 0
-2457 -2463 0
-2457 -2464 0
-2457 -2465 0
-2457 -2466 0
-2457 -2467 0
-2457 -2469 0
-2457 -2470 0
-2458 -2461 0
-2458 -2463 0
-2458 -2464 0
-2458 -2466 0
-2458 -2467 0
-2458 -2468 0
-2458 -2469 0
-2458 -2470 0
-2459 -2461 0
-2459 -2462 0
-2459 -2463 0
-2459 -2464 0
-2459 -2465 0
-2459 -2466 0
-2459 -2467 0
-2459 -2468 0
-2459 -2469 0
-2460 -2462 0
-2460 -2463 0
-2460 -2464 0
-2460 -2465 0
-2460 -2466 0
-2460 -2467 0
-2460 -2468 0
-2460 -2469 0
-2460 -2470 0
-2461 -2471 0
-2461 -2473 0
-2461 -2474 0
-2461 -2476 0
-2461 -2477 0
-2461 -2478 0
-2461 -2479 0
-2461 -2480 0
-2462 -2471 0
-2462 -2472 0
-2462 -2474 0
-2462 -2475 0
-2462 -2476 0
-2462 -2477 0
-2462 -2478 0
-2462 -2479 0
-2462 -2480 0
-2463 -2471 0
-2463 -2472 0
-2463 -2473 0
-2463 -2475 0
-2463 -2476 0
-2463 -2477 0
-2463 -2478 0
-2463 -2479 0
-2463 -2480 0
-2464 -2472 0
-2464 -2473 0
-2464 -2474 0
-2464 -2475 0
-2464 -2476 0
-2464 -2477 0
-2464 -2478 0
-2464 -2479 0
-2464 -2480 0
-2465 -2471 0
-2465 -2472 0
-2465 -2473 0
-2465 -2474 0
-2465 -2475 0
-2465 -2477 0
-2465 -2478 0
-2465 -2480 0
-2466 -2471 0
-2466 -2472 0
-2466 -2473 0
-2466 -2474 0
-2466 -2475 0
-2466 -2476 0
-2466 -2478 0
-2466 -2479 0
-2466 -2480 0
-2467 -2471 0
-2467 -2472 0
-2467 -2473 0
-2467 -2474 0
-2467 -2475 0
-2467 -2476 0
-2467 -2477 0
-2467 -2479 0
-2467 -2480 0
-2468 -2471 0
-2468 -2473 0
-2468 -2474 0
-2468 -2476 0
-2468 -2477 0
-2468 -2478 0
-2468 -2479 0
-2468 -2480 0
-2469 -2471 0
-2469 -2472 0
-2469 -2473 0
-2469 -2474 0
-2469 -2475 0
-2469 -2476 0
-2469 -2477 0
-2469 -2478 0
-2469 -2479 0
-2470 -2472 0
-2470 -2473 0
-2470 -2474 0
-2470 -2475 0
-2470 -2476 0
-2470 -2477 0
-2470 -2478 0
-2470 -2479 0
-2470 -2480 0
-2471 -2481 0
-2471 -2483 0
-2471 -2484 0
-2471 -2486 0
-2471 -2487 0
-2471 -2488 0
-2471 -2489 0
-2471 -2490 0
-2472 -2481 0
-2472 -2482 0
-2472 -2484 0
-2472 -2485 0
-2472 -2486 0
-2472 -2487 0
-2472 -2488 0
-2472 -2489 0
-2472 -2490 0
-2473 -2481 0
-2473 -2482 0
-2473 -2483 0
-2473 -2485 0
-2473 -2486 0
-2473 -2487 0
-2473 -2488 0
-2473 -2489 0
-2473 -2490 0
-2474 -2482 0
-2474 -2483 0
-2474 -2484 0
-2474 -2485 0
-2474 -2486 0
-2474 -2487 0
-2474 -2488 0
-2474 -2489 0
-2474 -2490 0
-2475 -2481 0
-2475 -2482 0
-2475 -2483 0
-2475 -2484 0
-2475 -2485 0
-2475 -2487 0
-2475 -2488 0
-2475 -2490 0
-2476 -2481 0
-2476 -2482 0
-2476 -2483 0
-2476 -2484 0
-2476 -2485 0
-2476 -2486 0
-2476 -2488 0
-2476 -2489 0
-2476 -2490 0
-2477 -2481 0
-2477 -2482 0
-2477 -2483 0
-2477 -2484 0
-2477 -2485 0
-2477 -2486 0
-2477 -2487 0
-2477 -2489 0
-2477 -2490 0
-2478 -2481 0
-2478 -2483 0
-2478 -2484 0
-2478 -2486 0
-2478 -2487 0
-2478 -2488 0
-2478 -2489 0
-2478 -2490 0
-2479 -2481 0
-2479 -2482 0
-2479 -2483 0
-2479 -2484 0
-2479 -2485 0
-2479 -2486 0
-2479 -2487 0
-2479 -2488 0
-2479 -2489 0
-2480 -2482 0
-2480 -2483 0
-2480 -2484 0
-2480 -2485 0
-2480 -2486 0
-2480 -2487 0
-2480 -2488 0
-2480 -2489 0
-2480 -2490 0
-2481 -2491 0
-2481 -2493 0
-2481 -2494 0
-2481 -2496 0
-2481 -2497 0
-2481 -2498 0
-2481 -2499 0
-2481 -2500 0
-2482 -2491 0
-2482 -2492 0
-2482 -2494 0
-2482 -2495 0
-2482 -2496 0
-2482 -2497 0
-2482 -2498 0
-2482 -2499 0
-2482 -2500 0
-2483 -2491 0
-2483 -2492 0
-2483 -2493 0
-2483 -2495 0
-2483 -2496 0
-2483 -2497 0
-2483 -2498 0
-2483 -2499 0
-2483 -2500 0
-2484 -2492 0
-2484 -2493 0
-2484 -2494 0
-2484 -2495 0
-2484 -2496 0
-2484 -2497 0
-2484 -2498 0
-2484 -2499 0
-2484 -2500 0
-2485 -2491 0
-2485 -2492 0
-2485 -2493 0
-2485 -2494 0
-2485 -2495 0
-2485 -2497 0
-2485 -2498 0
-2485 -2500 0
-2486 -2491 0
-2486 -2492 0
-2486 -2493 0
-2486 -2494 0
-2486 -2495 0
-2486 -2496 0
-2486 -2498 0
-2486 -2499 0
-2486 -2500 0
-2487 -2491 0
-2487 -2492 0
-2487 -2493 0
-2487 -2494 0
-2487 -2495 0
-2487 -2496 0
-2487 -2497 0
-2487 -2499 0
-2487 -2500 0
-2488 -2491 0
-2488 -2493 0
-2488 -2494 0
-2488 -2496 0
-2488 -2497 0
-2488 -2498 0
-2488 -2499 0
-2488 -2500 0
-2489 -2491 0
-2489 -2492 0
-2489 -2493 0
-2489 -2494 0
-2489 -2495 0
-2489 -2496 0
-2489 -2497 0
-2489 -2498 0
-2489 -2499 0
-2490 -2492 0
-2490 -2493 0
-2490 -2494 0
-2490 -2495 0
-2490 -2496 0
-2490 -2497 0
-2490 -2498 0
-2490 -2499 0
-2490 -2500 0
-2491 -2501 0
-2491 -2503 0
-2491 -2504 0
-2491 -2506 0
-2491 -2507 0
-2491 -2508 0
-2491 -2509 0
-2491 -2510 0
-2492 -2501 0
-2492 -2502 0
-2492 -2504 0
-2492 -2505 0
-2492 -2506 0
-2492 -2507 0
-2492 -2508 0
-2492 -2509 0
-2492 -2510 0
-2493 -2501 0
-2493 -2502 0
-2493 -2503 0
-2493 -2505 0
-2493 -2506 0
-2493 -2507 0
-2493 -2508 0
-2493 -2509 0
-2493 -2510 0
-2494 -2502 0
-2494 -2503 0
-2494 -2504 0
-2494 -2505 0
-2494 -2506 0
-2494 -2507 0
-2494 -2508 0
-2494 -2509 0
-2494 -2510 0
-2495 -2501 0
-2495 -2502 0
-2495 -2503 0
-2495 -2504 0
-2495 -2505 0
-2495 -2507 0
-2495 -2508 0
-2495 -2510 0
-2496 -2501 0
-2496 -2502 0
-2496 -2503 0
-2496 -2504 0
-2496 -2505 0
-2496 -2506 0
-2496 -2508 0
-2496 -2509 0
-2496 -2510 0
-2497 -2501 0
-2497 -2502 0
-2497 -2503 0
-2497 -2504 0
-2497 -2505 0
-2497 -2506 0
-2497 -2507 0
-2497 -2509 0
-2497 -2510 0
-2498 -2501 0
-2498 -2503 0
-2498 -2504 0
-2498 -2506 0
-2498 -2507 0
-2498 -2508 0
-2498 -2509 0
-2498 -2510 0
-2499 -2501 0
-2499 -2502 0
-2499 -2503 0
-2499 -2504 0
-2499 -2505 0
-2499 -2506 0
-2499 -2507 0
-2499 -2508 0
-2499 -2509 0
-2500 -2502 0
-2500 -2503 0
-2500 -2504 0
-2500 -2505 0
-2500 -2506 0
-2500 -2507 0
-2500 -2508 0
-2500 -2509 0
-2500 -2510 0
-2501 -2511 0
-2501 -2513 0
-2501 -2514 0
-2501 -2516 0
-2501 -2517 0
-2501 -2518 0
-2501 -2519 0
-2501 -2520 0
-2502 -2511 0
-2502 -2512 0
-2502 -2514 0
-2502 -2515 0
-2502 -2516 0
-2502 -2517 0
-2502 -2518 0
-2502 -2519 0
-2502 -2520 0
-2503 -2511 0
-2503 -2512 0
-2503 -2513 0
-2503 -2515 0
-2503 -2516 0
-2503 -2517 0
-2503 -2518 0
-2503 -2519 0
-2503 -2520 0
-2504 -2512 0
-2504 -2513 0
-2504 -2514 0
-2504 -2515 0
-2504 -2516 0
-2504 -2517 0
-2504 -2518 0
-2504 -2519 0
-2504 -2520 0
-2505 -2511 0
-2505 -2512 0
-2505 -2513 0
-2505 -2514 0
-2505 -2515 0
-2505 -2517 0
-2505 -2518 0
-2505 -2520 0
-2506 -2511 0
-2506 -2512 0
-2506 -2513 0
-2506 -2514 0
-2506 -2515 0
-2506 -2516 0
-2506 -2518 0
-2506 -2519 0
-2506 -2520 0
-2507 -2511 0
-2507 -2512 0
-2507 -2513 0
-2507 -2514 0
-2507 -2515 0
-2507 -2516 0
-2507 -2517 0
-2507 -2519 0
-2507 -2520 0
-2508 -2511 0
-2508 -2513 0
-2508 -2514 0
-2508 -2516 0
-2508 -2517 0
-2508 -2518 0
-2508 -2519 0
-2508 -2520 0
-2509 -2511 0
-2509 -2512 0
-2509 -2513 0
-2509 -2514 0
-2509 -2515 0
-2509 -2516 0
-2509 -2517 0
-2509 -2518 0
-2509 -2519 0
-2510 -2512 0
-2510 -2513 0
-2510 -2514 0
-2510 -2515 0
-2510 -2516 0
-2510 -2517 0
-2510 -2518 0
-2510 -2519 0
-2510 -2520 0
-2511 -2521 0
-2511 -2523 0
-2511 -2524 0
-2511 -2526 0
-2511 -2527 0
-2511 -2528 0
-2511 -2529 0
-2511 -2530 0
-2512 -2521 0
-2512 -2522 0
-2512 -2524 0
-2512 -2525 0
-2512 -2526 0
-2512 -2527 0
-2512 -2528 0
-2512 -2529 0
-2512 -2530 0
-2513 -2521 0
-2513 -2522 0
-2513 -2523 0
-2513 -2525 0
-2513 -2526 0
-2513 -2527 0
-2513 -2528 0
-2513 -2529 0
-2513 -2530 0
-2514 -2522 0
-2514 -2523 0
-2514 -2524 0
-2514 -2525 0
-2514 -2526 0
-2514 -2527 0
-2514 -2528 0
-2514 -2529 0
-2514 -2530 0
-2515 -2521 0
-2515 -2522 0
-2515 -2523 0
-2515 -2524 0
-2515 -2525 0
-2515 -2527 0
-2515 -2528 0
-2515 -2530 0
-2516 -2521 0
-2516 -2522 0
-2516 -2523 0
-2516 -2524 0
-2516 -2525 0
-2516 -2526 0
-2516 -2528 0
-2516 -2529 0
-2516 -2530 0
-2517 -2521 0
-2517 -2522 0
-2517 -2523 0
-2517 -2524 0
-2517 -2525 0
-2517 -2526 0
-2517 -2527 0
-2517 -2529 0
-2517 -2530 0
-2518 -2521 0
-2518 -2523 0
-2518 -2524 0
-2518 -2526 0
-2518 -2527 0
-2518 -2528 0
-2518 -2529 0
-2518 -2530 0
-2519 -2521 0
-2519 -2522 0
-2519 -2523 0
-2519 -2524 0
-2519 -2525 0
-2519 -2526 0
-2519 -2527 0
-2519 -2528 0
-2519 -2529 0
-2520 -2522 0
-2520 -2523 0
-2520 -2524 0
-2520 -2525 0
-2520 -2526 0
-2520 -2527 0
-2520 -2528 0
-2520 -2529 0
-2520 -2530 0
-2521 -2531 0
-2521 -2533 0
-2521 -2534 0
-2521 -2536 0
-2521 -2537 0
-2521 -2538 0
-2521 -2539 0
-2521 -2540 0
-2522 -2531 0
-2522 -2532 0
-2522 -2534 0
-2522 -2535 0
-2522 -2536 0
-2522 -2537 0
-2522 -2538 0
-2522 -2539 0
-2522 -2540 0
-2523 -2531 0
-2523 -2532 0
-2523 -2533 0
-2523 -2535 0
-2523 -2536 0
-2523 -2537 0
-2523 -2538 0
-2523 -2539 0
-2523 -2540 0
-2524 -2532 0
-2524 -2533 0
-2524 -2534 0
-2524 -2535 0
-2524 -2536 0
-2524 -2537 0
-2524 -2538 0
-2524 -2539 0
-2524 -2540 0
-2525 -2531 0
-2525 -2532 0
-2525 -2533 0
-2525 -2534 0
-2525 -2535 0
-2525 -2537 0
-2525 -2538 0
-2525 -2540 0
-2526 -2531 0
-2526 -2532 0
-2526 -2533 0
-2526 -2534 0
-2526 -2535 0
-2526 -2536 0
-2526 -2538 0
-2526 -2539 0
-2526 -2540 0
-2527 -2531 0
-2527 -2532 0
-2527 -2533 0
-2527 -2534 0
-2527 -2535 0
-2527 -2536 0
-2527 -2537 0
-2527 -2539 0
-2527 -2540 0
-2528 -2531 0
-2528 -2533 0
-2528 -2534 0
-2528 -2536 0
-2528 -2537 0
-2528 -2538 0
-2528 -2539 0
-2528 -2540 0
-2529 -2531 0
-2529 -2532 0
-2529 -2533 0
-2529 -2534 0
-2529 -2535 0
-2529 -2536 0
-2529 -2537 0
-2529 -2538 0
-2529 -2539 0
-2530 -2532 0
-2530 -2533 0
-2530 -2534 0
-2530 -2535 0
-2530 -2536 0
-2530 -2537 0
-2530 -2538 0
-2530 -2539 0
-2530 -2540 0
-2531 -2541 0
-2531 -2543 0
-2531 -2544 0
-2531 -2546 0
-2531 -2547 0
-2531 -2548 0
-2531 -2549 0
-2531 -2550 0
-2532 -2541 0
-2532 -2542 0
-2532 -2544 0
-2532 -2545 0
-2532 -2546 0
-2532 -2547 0
-2532 -2548 0
-2532 -2549 0
-2532 -2550 0
-2533 -2541 0
-2533 -2542 0
-2533 -2543 0
-2533 -2545 0
-2533 -2546 0
-2533 -2547 0
-2533 -2548 0
-2533 -2549 0
-2533 -2550 0
-2534 -2542 0
-2534 -2543 0
-2534 -2544 0
-2534 -2545 0
-2534 -2546 0
-2534 -2547 0
-2534 -2548 0
-2534 -2549 0
-2534 -2550 0
-2535 -2541 0
-2535 -2542 0
-2535 -2543 0
-2535 -2544 0
-2535 -2545 0
-2535 -2547 0
-2535 -2548 0
-2535 -2550 0
-2536 -2541 0
-2536 -2542 0
-2536 -2543 0
-2536 -2544 0
-2536 -2545 0
-2536 -2546 0
-2536 -2548 0
-2536 -2549 0
-2536 -2550 0
-2537 -2541 0
-2537 -2542 0
-2537 -2543 0
-2537 -2544 0
-2537 -2545 0
-2537 -2546 0
-2537 -2547 0
-2537 -2549 0
-2537 -2550 0
-2538 -2541 0
-2538 -2543 0
-2538 -2544 0
-2538 -2546 0
-2538 -2547 0
-2538 -2548 0
-2538 -2549 0
-2538 -2550 0
-2539 -2541 0
-2539 -2542 0
-2539 -2543 0
-2539 -2544 0
-2539 -2545 0
-2539 -2546 0
-2539 -2547 0
-2539 -2548 0
-2539 -2549 0
-2540 -2542 0
-2540 -2543 0
-2540 -2544 0
-2540 -2545 0
-2540 -2546 0
-2540 -2547 0
-2540 -2548 0
-2540 -2549 0
-2540 -2550 0
-2541 -2551 0
-2541 -2553 0
-2541 -2554 0
-2541 -2556 0
-2541 -2557 0
-2541 -2558 0
-2541 -2559 0
-2541 -2560 0
-2542 -2551 0
-2542 -2552 0
-2542 -2554 0
-2542 -2555 0
-2542 -2556 0
-2542 -2557 0
-2542 -2558 0
-2542 -2559 0
-2542 -2560 0
-2543 -2551 0
-2543 -2552 0
-2543 -2553 0
-2543 -2555 0
-2543 -2556 0
-2543 -2557 0
-2543 -2558 0
-2543 -2559 0
-2543 -2560 0
-2544 -2552 0
-2544 -2553 0
-2544 -2554 0
-2544 -2555 0
-2544 -2556 0
-2544 -2557 0
-2544 -2558 0
-2544 -2559 0
-2544 -2560 0
-2545 -2551 0
-2545 -2552 0
-2545 -2553 0
-2545 -2554 0
-2545 -2555 0
-2545 -2557 0
-2545 -2558 0
-2545 -2560 0
-2546 -2551 0
-2546 -2552 0
-2546 -2553 0
-2546 -2554 0
-2546 -2555 0
-2546 -2556 0
-2546 -2558 0
-2546 -2559 0
-2546 -2560 0
-2547 -2551 0
-2547 -2552 0
-2547 -2553 0
-2547 -2554 0
-2547 -2555 0
-2547 -2556 0
-2547 -2557 0
-2547 -2559 0
-2547 -2560 0
-2548 -2551 0
-2548 -2553 0
-2548 -2554 0
-2548 -2556 0
-2548 -2557 0
-2548 -2558 0
-2548 -2559 0
-2548 -2560 0
-2549 -2551 0
-2549 -2552 0
-2549 -2553 0
-2549 -2554 0
-2549 -2555 0
-2549 -2556 0
-2549 -2557 0
-2549 -2558 0
-2549 -2559 0
-2550 -2552 0
-2550 -2553 0
-2550 -2554 0
-2550 -2555 0
-2550 -2556 0
-2550 -2557 0
-2550 -2558 0
-2550 -2559 0
-2550 -2560 0
